##TITLE=Heptane,_99%,_spectrophotometric_grade
##JCAMP-DX=5.01
##DATA TYPE=NMR SPECTRUM
##DATA CLASS=XYDATA
##XUNITS=PPM
##YUNITS=ARBITRARY UNITS
##.OBSERVE NUCLEUS=1H
##FIRSTX=11.7668
##LASTX=-0.0970
##NPOINTS=5749
##XYPOINTS=(XY..XY)
11.7668, 80.0000
11.7647, 80.0000
11.7626, 80.0000
11.7606, 81.0000
11.7585, 81.0000
11.7564, 81.0000
11.7544, 81.0000
11.7523, 81.0000
11.7503, 81.0000
11.7482, 81.0000
11.7461, 81.0000
11.7441, 80.0000
11.7420, 80.0000
11.7399, 80.0000
11.7379, 80.0000
11.7358, 80.0000
11.7337, 80.0000
11.7317, 80.0000
11.7296, 80.0000
11.7276, 80.0000
11.7255, 80.0000
11.7234, 80.0000
11.7214, 80.0000
11.7193, 80.0000
11.7172, 80.0000
11.7152, 80.0000
11.7131, 80.0000
11.7110, 80.0000
11.7090, 80.0000
11.7069, 80.0000
11.7049, 80.0000
11.7028, 80.0000
11.7007, 80.0000
11.6987, 80.0000
11.6966, 80.0000
11.6945, 81.0000
11.6925, 81.0000
11.6904, 81.0000
11.6883, 81.0000
11.6863, 81.0000
11.6842, 81.0000
11.6821, 81.0000
11.6801, 81.0000
11.6780, 81.0000
11.6760, 81.0000
11.6739, 80.0000
11.6718, 80.0000
11.6698, 80.0000
11.6677, 80.0000
11.6656, 80.0000
11.6636, 80.0000
11.6615, 80.0000
11.6594, 80.0000
11.6574, 80.0000
11.6553, 80.0000
11.6533, 80.0000
11.6512, 80.0000
11.6491, 80.0000
11.6471, 80.0000
11.6450, 80.0000
11.6429, 80.0000
11.6409, 80.0000
11.6388, 80.0000
11.6367, 80.0000
11.6347, 80.0000
11.6326, 80.0000
11.6305, 80.0000
11.6285, 80.0000
11.6264, 80.0000
11.6244, 80.0000
11.6223, 80.0000
11.6202, 80.0000
11.6182, 81.0000
11.6161, 81.0000
11.6140, 81.0000
11.6120, 81.0000
11.6099, 81.0000
11.6078, 81.0000
11.6058, 81.0000
11.6037, 81.0000
11.6017, 81.0000
11.5996, 80.0000
11.5975, 80.0000
11.5955, 80.0000
11.5934, 80.0000
11.5913, 80.0000
11.5893, 80.0000
11.5872, 80.0000
11.5851, 80.0000
11.5831, 81.0000
11.5810, 81.0000
11.5789, 81.0000
11.5769, 81.0000
11.5748, 81.0000
11.5728, 81.0000
11.5707, 81.0000
11.5686, 81.0000
11.5666, 81.0000
11.5645, 81.0000
11.5624, 81.0000
11.5604, 81.0000
11.5583, 81.0000
11.5562, 81.0000
11.5542, 81.0000
11.5521, 81.0000
11.5501, 81.0000
11.5480, 81.0000
11.5459, 81.0000
11.5439, 81.0000
11.5418, 81.0000
11.5397, 81.0000
11.5377, 81.0000
11.5356, 81.0000
11.5335, 81.0000
11.5315, 80.0000
11.5294, 80.0000
11.5273, 80.0000
11.5253, 80.0000
11.5232, 80.0000
11.5212, 80.0000
11.5191, 80.0000
11.5170, 80.0000
11.5150, 80.0000
11.5129, 80.0000
11.5108, 80.0000
11.5088, 80.0000
11.5067, 80.0000
11.5046, 80.0000
11.5026, 80.0000
11.5005, 80.0000
11.4985, 80.0000
11.4964, 80.0000
11.4943, 80.0000
11.4923, 81.0000
11.4902, 81.0000
11.4881, 81.0000
11.4861, 81.0000
11.4840, 81.0000
11.4819, 81.0000
11.4799, 81.0000
11.4778, 80.0000
11.4757, 80.0000
11.4737, 80.0000
11.4716, 80.0000
11.4696, 80.0000
11.4675, 81.0000
11.4654, 81.0000
11.4634, 81.0000
11.4613, 81.0000
11.4592, 81.0000
11.4572, 81.0000
11.4551, 81.0000
11.4530, 81.0000
11.4510, 80.0000
11.4489, 80.0000
11.4469, 80.0000
11.4448, 80.0000
11.4427, 80.0000
11.4407, 80.0000
11.4386, 80.0000
11.4365, 80.0000
11.4345, 80.0000
11.4324, 80.0000
11.4303, 80.0000
11.4283, 80.0000
11.4262, 80.0000
11.4241, 80.0000
11.4221, 80.0000
11.4200, 80.0000
11.4180, 80.0000
11.4159, 80.0000
11.4138, 80.0000
11.4118, 80.0000
11.4097, 80.0000
11.4076, 80.0000
11.4056, 80.0000
11.4035, 80.0000
11.4014, 80.0000
11.3994, 80.0000
11.3973, 80.0000
11.3953, 80.0000
11.3932, 80.0000
11.3911, 80.0000
11.3891, 80.0000
11.3870, 80.0000
11.3849, 80.0000
11.3829, 80.0000
11.3808, 81.0000
11.3787, 81.0000
11.3767, 81.0000
11.3746, 81.0000
11.3725, 81.0000
11.3705, 81.0000
11.3684, 81.0000
11.3664, 81.0000
11.3643, 81.0000
11.3622, 81.0000
11.3602, 80.0000
11.3581, 80.0000
11.3560, 80.0000
11.3540, 80.0000
11.3519, 80.0000
11.3498, 81.0000
11.3478, 81.0000
11.3457, 81.0000
11.3437, 81.0000
11.3416, 81.0000
11.3395, 81.0000
11.3375, 81.0000
11.3354, 81.0000
11.3333, 81.0000
11.3313, 81.0000
11.3292, 81.0000
11.3271, 81.0000
11.3251, 81.0000
11.3230, 81.0000
11.3209, 80.0000
11.3189, 80.0000
11.3168, 80.0000
11.3148, 80.0000
11.3127, 80.0000
11.3106, 81.0000
11.3086, 81.0000
11.3065, 81.0000
11.3044, 81.0000
11.3024, 81.0000
11.3003, 81.0000
11.2982, 81.0000
11.2962, 81.0000
11.2941, 81.0000
11.2921, 81.0000
11.2900, 80.0000
11.2879, 80.0000
11.2859, 80.0000
11.2838, 80.0000
11.2817, 80.0000
11.2797, 80.0000
11.2776, 80.0000
11.2755, 80.0000
11.2735, 80.0000
11.2714, 80.0000
11.2693, 79.0000
11.2673, 79.0000
11.2652, 79.0000
11.2632, 79.0000
11.2611, 79.0000
11.2590, 80.0000
11.2570, 80.0000
11.2549, 81.0000
11.2528, 81.0000
11.2508, 81.0000
11.2487, 81.0000
11.2466, 81.0000
11.2446, 81.0000
11.2425, 81.0000
11.2405, 81.0000
11.2384, 80.0000
11.2363, 80.0000
11.2343, 80.0000
11.2322, 80.0000
11.2301, 80.0000
11.2281, 82.0000
11.2260, 84.0000
11.2239, 84.0000
11.2219, 79.0000
11.2198, 79.0000
11.2178, 79.0000
11.2157, 79.0000
11.2136, 79.0000
11.2116, 80.0000
11.2095, 80.0000
11.2074, 81.0000
11.2054, 81.0000
11.2033, 81.0000
11.2012, 81.0000
11.1992, 81.0000
11.1971, 80.0000
11.1950, 80.0000
11.1930, 80.0000
11.1909, 80.0000
11.1889, 80.0000
11.1868, 80.0000
11.1847, 80.0000
11.1827, 80.0000
11.1806, 80.0000
11.1785, 80.0000
11.1765, 80.0000
11.1744, 80.0000
11.1723, 80.0000
11.1703, 81.0000
11.1682, 81.0000
11.1662, 81.0000
11.1641, 81.0000
11.1620, 81.0000
11.1600, 81.0000
11.1579, 81.0000
11.1558, 81.0000
11.1538, 81.0000
11.1517, 80.0000
11.1496, 80.0000
11.1476, 80.0000
11.1455, 80.0000
11.1434, 80.0000
11.1414, 80.0000
11.1393, 80.0000
11.1373, 80.0000
11.1352, 80.0000
11.1331, 80.0000
11.1311, 81.0000
11.1290, 81.0000
11.1269, 81.0000
11.1249, 81.0000
11.1228, 81.0000
11.1207, 81.0000
11.1187, 81.0000
11.1166, 80.0000
11.1146, 80.0000
11.1125, 80.0000
11.1104, 80.0000
11.1084, 80.0000
11.1063, 80.0000
11.1042, 80.0000
11.1022, 80.0000
11.1001, 80.0000
11.0980, 80.0000
11.0960, 80.0000
11.0939, 80.0000
11.0918, 80.0000
11.0898, 81.0000
11.0877, 81.0000
11.0857, 81.0000
11.0836, 81.0000
11.0815, 81.0000
11.0795, 81.0000
11.0774, 81.0000
11.0753, 81.0000
11.0733, 81.0000
11.0712, 81.0000
11.0691, 81.0000
11.0671, 81.0000
11.0650, 81.0000
11.0630, 81.0000
11.0609, 81.0000
11.0588, 81.0000
11.0568, 81.0000
11.0547, 81.0000
11.0526, 81.0000
11.0506, 80.0000
11.0485, 80.0000
11.0464, 80.0000
11.0444, 80.0000
11.0423, 80.0000
11.0402, 80.0000
11.0382, 80.0000
11.0361, 80.0000
11.0341, 80.0000
11.0320, 80.0000
11.0299, 80.0000
11.0279, 80.0000
11.0258, 80.0000
11.0237, 80.0000
11.0217, 80.0000
11.0196, 81.0000
11.0175, 81.0000
11.0155, 81.0000
11.0134, 81.0000
11.0114, 81.0000
11.0093, 81.0000
11.0072, 81.0000
11.0052, 81.0000
11.0031, 81.0000
11.0010, 81.0000
10.9990, 80.0000
10.9969, 80.0000
10.9948, 80.0000
10.9928, 80.0000
10.9907, 80.0000
10.9886, 80.0000
10.9866, 80.0000
10.9845, 80.0000
10.9825, 80.0000
10.9804, 80.0000
10.9783, 81.0000
10.9763, 81.0000
10.9742, 81.0000
10.9721, 81.0000
10.9701, 81.0000
10.9680, 81.0000
10.9659, 81.0000
10.9639, 81.0000
10.9618, 81.0000
10.9598, 81.0000
10.9577, 81.0000
10.9556, 80.0000
10.9536, 80.0000
10.9515, 80.0000
10.9494, 80.0000
10.9474, 80.0000
10.9453, 81.0000
10.9432, 81.0000
10.9412, 81.0000
10.9391, 81.0000
10.9370, 81.0000
10.9350, 81.0000
10.9329, 81.0000
10.9309, 81.0000
10.9288, 81.0000
10.9267, 81.0000
10.9247, 81.0000
10.9226, 81.0000
10.9205, 81.0000
10.9185, 81.0000
10.9164, 81.0000
10.9143, 80.0000
10.9123, 80.0000
10.9102, 80.0000
10.9082, 79.0000
10.9061, 79.0000
10.9040, 79.0000
10.9020, 79.0000
10.8999, 79.0000
10.8978, 79.0000
10.8958, 79.0000
10.8937, 79.0000
10.8916, 79.0000
10.8896, 79.0000
10.8875, 80.0000
10.8854, 80.0000
10.8834, 80.0000
10.8813, 80.0000
10.8793, 80.0000
10.8772, 80.0000
10.8751, 80.0000
10.8731, 80.0000
10.8710, 80.0000
10.8689, 80.0000
10.8669, 80.0000
10.8648, 80.0000
10.8627, 80.0000
10.8607, 80.0000
10.8586, 80.0000
10.8566, 80.0000
10.8545, 80.0000
10.8524, 80.0000
10.8504, 80.0000
10.8483, 80.0000
10.8462, 80.0000
10.8442, 80.0000
10.8421, 80.0000
10.8400, 80.0000
10.8380, 80.0000
10.8359, 80.0000
10.8338, 80.0000
10.8318, 80.0000
10.8297, 80.0000
10.8277, 81.0000
10.8256, 81.0000
10.8235, 81.0000
10.8215, 81.0000
10.8194, 81.0000
10.8173, 81.0000
10.8153, 81.0000
10.8132, 81.0000
10.8111, 81.0000
10.8091, 81.0000
10.8070, 80.0000
10.8050, 80.0000
10.8029, 80.0000
10.8008, 80.0000
10.7988, 80.0000
10.7967, 80.0000
10.7946, 80.0000
10.7926, 81.0000
10.7905, 81.0000
10.7884, 81.0000
10.7864, 81.0000
10.7843, 81.0000
10.7822, 81.0000
10.7802, 81.0000
10.7781, 81.0000
10.7761, 80.0000
10.7740, 80.0000
10.7719, 80.0000
10.7699, 80.0000
10.7678, 80.0000
10.7657, 80.0000
10.7637, 80.0000
10.7616, 80.0000
10.7595, 80.0000
10.7575, 79.0000
10.7554, 79.0000
10.7534, 79.0000
10.7513, 79.0000
10.7492, 79.0000
10.7472, 80.0000
10.7451, 80.0000
10.7430, 81.0000
10.7410, 81.0000
10.7389, 81.0000
10.7368, 81.0000
10.7348, 81.0000
10.7327, 80.0000
10.7307, 80.0000
10.7286, 80.0000
10.7265, 80.0000
10.7245, 80.0000
10.7224, 80.0000
10.7203, 80.0000
10.7183, 80.0000
10.7162, 81.0000
10.7141, 81.0000
10.7121, 81.0000
10.7100, 81.0000
10.7079, 81.0000
10.7059, 81.0000
10.7038, 80.0000
10.7018, 80.0000
10.6997, 80.0000
10.6976, 81.0000
10.6956, 81.0000
10.6935, 81.0000
10.6914, 81.0000
10.6894, 81.0000
10.6873, 81.0000
10.6852, 81.0000
10.6832, 81.0000
10.6811, 81.0000
10.6791, 81.0000
10.6770, 81.0000
10.6749, 81.0000
10.6729, 81.0000
10.6708, 80.0000
10.6687, 80.0000
10.6667, 80.0000
10.6646, 80.0000
10.6625, 80.0000
10.6605, 81.0000
10.6584, 81.0000
10.6563, 81.0000
10.6543, 81.0000
10.6522, 81.0000
10.6502, 81.0000
10.6481, 81.0000
10.6460, 81.0000
10.6440, 81.0000
10.6419, 81.0000
10.6398, 81.0000
10.6378, 81.0000
10.6357, 81.0000
10.6336, 81.0000
10.6316, 81.0000
10.6295, 81.0000
10.6275, 81.0000
10.6254, 81.0000
10.6233, 81.0000
10.6213, 81.0000
10.6192, 81.0000
10.6171, 80.0000
10.6151, 80.0000
10.6130, 80.0000
10.6109, 80.0000
10.6089, 80.0000
10.6068, 81.0000
10.6047, 81.0000
10.6027, 81.0000
10.6006, 81.0000
10.5986, 81.0000
10.5965, 81.0000
10.5944, 81.0000
10.5924, 81.0000
10.5903, 80.0000
10.5882, 80.0000
10.5862, 80.0000
10.5841, 80.0000
10.5820, 80.0000
10.5800, 80.0000
10.5779, 80.0000
10.5759, 80.0000
10.5738, 80.0000
10.5717, 80.0000
10.5697, 81.0000
10.5676, 81.0000
10.5655, 81.0000
10.5635, 81.0000
10.5614, 81.0000
10.5593, 81.0000
10.5573, 81.0000
10.5552, 81.0000
10.5531, 81.0000
10.5511, 81.0000
10.5490, 80.0000
10.5470, 80.0000
10.5449, 80.0000
10.5428, 80.0000
10.5408, 80.0000
10.5387, 81.0000
10.5366, 81.0000
10.5346, 81.0000
10.5325, 81.0000
10.5304, 81.0000
10.5284, 81.0000
10.5263, 80.0000
10.5243, 80.0000
10.5222, 80.0000
10.5201, 79.0000
10.5181, 79.0000
10.5160, 79.0000
10.5139, 79.0000
10.5119, 82.0000
10.5098, 82.0000
10.5077, 80.0000
10.5057, 80.0000
10.5036, 81.0000
10.5015, 81.0000
10.4995, 81.0000
10.4974, 81.0000
10.4954, 81.0000
10.4933, 81.0000
10.4912, 81.0000
10.4892, 81.0000
10.4871, 80.0000
10.4850, 80.0000
10.4830, 80.0000
10.4809, 80.0000
10.4788, 80.0000
10.4768, 81.0000
10.4747, 81.0000
10.4727, 81.0000
10.4706, 81.0000
10.4685, 81.0000
10.4665, 81.0000
10.4644, 81.0000
10.4623, 81.0000
10.4603, 81.0000
10.4582, 81.0000
10.4561, 81.0000
10.4541, 81.0000
10.4520, 81.0000
10.4499, 81.0000
10.4479, 81.0000
10.4458, 81.0000
10.4438, 81.0000
10.4417, 81.0000
10.4396, 81.0000
10.4376, 81.0000
10.4355, 80.0000
10.4334, 80.0000
10.4314, 80.0000
10.4293, 80.0000
10.4272, 80.0000
10.4252, 80.0000
10.4231, 80.0000
10.4211, 80.0000
10.4190, 80.0000
10.4169, 81.0000
10.4149, 81.0000
10.4128, 81.0000
10.4107, 81.0000
10.4087, 81.0000
10.4066, 81.0000
10.4045, 81.0000
10.4025, 81.0000
10.4004, 81.0000
10.3983, 81.0000
10.3963, 80.0000
10.3942, 80.0000
10.3922, 80.0000
10.3901, 80.0000
10.3880, 80.0000
10.3860, 80.0000
10.3839, 80.0000
10.3818, 80.0000
10.3798, 80.0000
10.3777, 80.0000
10.3756, 81.0000
10.3736, 81.0000
10.3715, 81.0000
10.3695, 81.0000
10.3674, 81.0000
10.3653, 81.0000
10.3633, 81.0000
10.3612, 81.0000
10.3591, 81.0000
10.3571, 81.0000
10.3550, 80.0000
10.3529, 80.0000
10.3509, 80.0000
10.3488, 80.0000
10.3467, 80.0000
10.3447, 80.0000
10.3426, 80.0000
10.3406, 80.0000
10.3385, 80.0000
10.3364, 80.0000
10.3344, 80.0000
10.3323, 80.0000
10.3302, 80.0000
10.3282, 80.0000
10.3261, 80.0000
10.3240, 81.0000
10.3220, 81.0000
10.3199, 81.0000
10.3179, 81.0000
10.3158, 81.0000
10.3137, 81.0000
10.3117, 81.0000
10.3096, 81.0000
10.3075, 81.0000
10.3055, 80.0000
10.3034, 80.0000
10.3013, 80.0000
10.2993, 80.0000
10.2972, 80.0000
10.2951, 80.0000
10.2931, 80.0000
10.2910, 81.0000
10.2890, 81.0000
10.2869, 81.0000
10.2848, 81.0000
10.2828, 81.0000
10.2807, 81.0000
10.2786, 81.0000
10.2766, 81.0000
10.2745, 81.0000
10.2724, 81.0000
10.2704, 81.0000
10.2683, 81.0000
10.2663, 81.0000
10.2642, 81.0000
10.2621, 81.0000
10.2601, 81.0000
10.2580, 81.0000
10.2559, 81.0000
10.2539, 81.0000
10.2518, 81.0000
10.2497, 81.0000
10.2477, 81.0000
10.2456, 81.0000
10.2436, 81.0000
10.2415, 81.0000
10.2394, 81.0000
10.2374, 81.0000
10.2353, 81.0000
10.2332, 81.0000
10.2312, 81.0000
10.2291, 81.0000
10.2270, 81.0000
10.2250, 81.0000
10.2229, 81.0000
10.2208, 81.0000
10.2188, 81.0000
10.2167, 81.0000
10.2147, 80.0000
10.2126, 80.0000
10.2105, 80.0000
10.2085, 80.0000
10.2064, 80.0000
10.2043, 81.0000
10.2023, 81.0000
10.2002, 81.0000
10.1981, 81.0000
10.1961, 81.0000
10.1940, 81.0000
10.1920, 81.0000
10.1899, 81.0000
10.1878, 81.0000
10.1858, 81.0000
10.1837, 81.0000
10.1816, 81.0000
10.1796, 81.0000
10.1775, 81.0000
10.1754, 81.0000
10.1734, 81.0000
10.1713, 81.0000
10.1692, 81.0000
10.1672, 81.0000
10.1651, 81.0000
10.1631, 81.0000
10.1610, 81.0000
10.1589, 81.0000
10.1569, 81.0000
10.1548, 81.0000
10.1527, 81.0000
10.1507, 81.0000
10.1486, 81.0000
10.1465, 81.0000
10.1445, 81.0000
10.1424, 81.0000
10.1404, 81.0000
10.1383, 81.0000
10.1362, 81.0000
10.1342, 81.0000
10.1321, 81.0000
10.1300, 81.0000
10.1280, 81.0000
10.1259, 81.0000
10.1238, 81.0000
10.1218, 81.0000
10.1197, 81.0000
10.1176, 81.0000
10.1156, 81.0000
10.1135, 81.0000
10.1115, 81.0000
10.1094, 81.0000
10.1073, 81.0000
10.1053, 81.0000
10.1032, 81.0000
10.1011, 81.0000
10.0991, 81.0000
10.0970, 81.0000
10.0949, 81.0000
10.0929, 81.0000
10.0908, 81.0000
10.0888, 81.0000
10.0867, 81.0000
10.0846, 81.0000
10.0826, 81.0000
10.0805, 81.0000
10.0784, 81.0000
10.0764, 81.0000
10.0743, 81.0000
10.0722, 81.0000
10.0702, 81.0000
10.0681, 81.0000
10.0660, 81.0000
10.0640, 81.0000
10.0619, 81.0000
10.0599, 81.0000
10.0578, 81.0000
10.0557, 81.0000
10.0537, 81.0000
10.0516, 81.0000
10.0495, 81.0000
10.0475, 81.0000
10.0454, 81.0000
10.0433, 81.0000
10.0413, 81.0000
10.0392, 81.0000
10.0372, 81.0000
10.0351, 81.0000
10.0330, 81.0000
10.0310, 81.0000
10.0289, 80.0000
10.0268, 80.0000
10.0248, 80.0000
10.0227, 80.0000
10.0206, 80.0000
10.0186, 80.0000
10.0165, 80.0000
10.0144, 80.0000
10.0124, 81.0000
10.0103, 81.0000
10.0083, 81.0000
10.0062, 81.0000
10.0041, 81.0000
10.0021, 81.0000
10.0000, 81.0000
9.9979, 81.0000
9.9959, 81.0000
9.9938, 81.0000
9.9917, 81.0000
9.9897, 81.0000
9.9876, 81.0000
9.9856, 81.0000
9.9835, 81.0000
9.9814, 81.0000
9.9794, 81.0000
9.9773, 81.0000
9.9752, 81.0000
9.9732, 81.0000
9.9711, 81.0000
9.9690, 81.0000
9.9670, 81.0000
9.9649, 81.0000
9.9628, 81.0000
9.9608, 81.0000
9.9587, 81.0000
9.9567, 81.0000
9.9546, 81.0000
9.9525, 81.0000
9.9505, 81.0000
9.9484, 81.0000
9.9463, 81.0000
9.9443, 81.0000
9.9422, 81.0000
9.9401, 81.0000
9.9381, 81.0000
9.9360, 81.0000
9.9340, 81.0000
9.9319, 81.0000
9.9298, 81.0000
9.9278, 81.0000
9.9257, 81.0000
9.9236, 81.0000
9.9216, 81.0000
9.9195, 81.0000
9.9174, 81.0000
9.9154, 81.0000
9.9133, 81.0000
9.9112, 81.0000
9.9092, 81.0000
9.9071, 81.0000
9.9051, 81.0000
9.9030, 81.0000
9.9009, 80.0000
9.8989, 80.0000
9.8968, 80.0000
9.8947, 80.0000
9.8927, 80.0000
9.8906, 81.0000
9.8885, 81.0000
9.8865, 81.0000
9.8844, 81.0000
9.8824, 81.0000
9.8803, 81.0000
9.8782, 81.0000
9.8762, 81.0000
9.8741, 81.0000
9.8720, 81.0000
9.8700, 81.0000
9.8679, 81.0000
9.8658, 81.0000
9.8638, 81.0000
9.8617, 81.0000
9.8596, 81.0000
9.8576, 81.0000
9.8555, 81.0000
9.8535, 81.0000
9.8514, 81.0000
9.8493, 81.0000
9.8473, 81.0000
9.8452, 80.0000
9.8431, 80.0000
9.8411, 80.0000
9.8390, 80.0000
9.8369, 80.0000
9.8349, 80.0000
9.8328, 80.0000
9.8308, 81.0000
9.8287, 81.0000
9.8266, 81.0000
9.8246, 81.0000
9.8225, 81.0000
9.8204, 81.0000
9.8184, 81.0000
9.8163, 81.0000
9.8142, 81.0000
9.8122, 81.0000
9.8101, 81.0000
9.8080, 81.0000
9.8060, 81.0000
9.8039, 81.0000
9.8019, 81.0000
9.7998, 81.0000
9.7977, 81.0000
9.7957, 81.0000
9.7936, 81.0000
9.7915, 81.0000
9.7895, 81.0000
9.7874, 81.0000
9.7853, 81.0000
9.7833, 81.0000
9.7812, 81.0000
9.7792, 81.0000
9.7771, 81.0000
9.7750, 81.0000
9.7730, 81.0000
9.7709, 81.0000
9.7688, 80.0000
9.7668, 80.0000
9.7647, 80.0000
9.7626, 80.0000
9.7606, 80.0000
9.7585, 80.0000
9.7564, 80.0000
9.7544, 80.0000
9.7523, 80.0000
9.7503, 80.0000
9.7482, 80.0000
9.7461, 80.0000
9.7441, 80.0000
9.7420, 80.0000
9.7399, 80.0000
9.7379, 80.0000
9.7358, 80.0000
9.7337, 80.0000
9.7317, 80.0000
9.7296, 80.0000
9.7276, 80.0000
9.7255, 80.0000
9.7234, 80.0000
9.7214, 80.0000
9.7193, 80.0000
9.7172, 80.0000
9.7152, 80.0000
9.7131, 80.0000
9.7110, 80.0000
9.7090, 81.0000
9.7069, 81.0000
9.7049, 81.0000
9.7028, 81.0000
9.7007, 81.0000
9.6987, 81.0000
9.6966, 81.0000
9.6945, 81.0000
9.6925, 81.0000
9.6904, 81.0000
9.6883, 81.0000
9.6863, 81.0000
9.6842, 81.0000
9.6821, 81.0000
9.6801, 81.0000
9.6780, 81.0000
9.6760, 81.0000
9.6739, 81.0000
9.6718, 81.0000
9.6698, 81.0000
9.6677, 81.0000
9.6656, 81.0000
9.6636, 81.0000
9.6615, 81.0000
9.6594, 81.0000
9.6574, 81.0000
9.6553, 81.0000
9.6533, 81.0000
9.6512, 81.0000
9.6491, 80.0000
9.6471, 80.0000
9.6450, 80.0000
9.6429, 80.0000
9.6409, 80.0000
9.6388, 81.0000
9.6367, 81.0000
9.6347, 81.0000
9.6326, 81.0000
9.6305, 81.0000
9.6285, 81.0000
9.6264, 81.0000
9.6244, 81.0000
9.6223, 81.0000
9.6202, 81.0000
9.6182, 81.0000
9.6161, 81.0000
9.6140, 81.0000
9.6120, 81.0000
9.6099, 81.0000
9.6078, 81.0000
9.6058, 81.0000
9.6037, 81.0000
9.6017, 81.0000
9.5996, 81.0000
9.5975, 81.0000
9.5955, 81.0000
9.5934, 81.0000
9.5913, 81.0000
9.5893, 81.0000
9.5872, 81.0000
9.5851, 81.0000
9.5831, 81.0000
9.5810, 81.0000
9.5789, 81.0000
9.5769, 81.0000
9.5748, 81.0000
9.5728, 81.0000
9.5707, 81.0000
9.5686, 81.0000
9.5666, 81.0000
9.5645, 81.0000
9.5624, 81.0000
9.5604, 81.0000
9.5583, 81.0000
9.5562, 81.0000
9.5542, 81.0000
9.5521, 81.0000
9.5501, 81.0000
9.5480, 81.0000
9.5459, 81.0000
9.5439, 81.0000
9.5418, 81.0000
9.5397, 81.0000
9.5377, 81.0000
9.5356, 81.0000
9.5335, 81.0000
9.5315, 81.0000
9.5294, 81.0000
9.5273, 81.0000
9.5253, 81.0000
9.5232, 81.0000
9.5212, 81.0000
9.5191, 81.0000
9.5170, 81.0000
9.5150, 81.0000
9.5129, 81.0000
9.5108, 81.0000
9.5088, 81.0000
9.5067, 81.0000
9.5046, 81.0000
9.5026, 81.0000
9.5005, 81.0000
9.4985, 81.0000
9.4964, 80.0000
9.4943, 80.0000
9.4923, 80.0000
9.4902, 80.0000
9.4881, 80.0000
9.4861, 80.0000
9.4840, 80.0000
9.4819, 80.0000
9.4799, 80.0000
9.4778, 80.0000
9.4757, 81.0000
9.4737, 81.0000
9.4716, 81.0000
9.4696, 81.0000
9.4675, 81.0000
9.4654, 81.0000
9.4634, 81.0000
9.4613, 81.0000
9.4592, 81.0000
9.4572, 81.0000
9.4551, 81.0000
9.4530, 81.0000
9.4510, 81.0000
9.4489, 81.0000
9.4469, 81.0000
9.4448, 81.0000
9.4427, 81.0000
9.4407, 81.0000
9.4386, 81.0000
9.4365, 81.0000
9.4345, 81.0000
9.4324, 81.0000
9.4303, 81.0000
9.4283, 81.0000
9.4262, 81.0000
9.4241, 81.0000
9.4221, 81.0000
9.4200, 81.0000
9.4180, 81.0000
9.4159, 81.0000
9.4138, 81.0000
9.4118, 81.0000
9.4097, 81.0000
9.4076, 81.0000
9.4056, 81.0000
9.4035, 81.0000
9.4014, 81.0000
9.3994, 81.0000
9.3973, 81.0000
9.3953, 81.0000
9.3932, 81.0000
9.3911, 81.0000
9.3891, 81.0000
9.3870, 81.0000
9.3849, 81.0000
9.3829, 81.0000
9.3808, 81.0000
9.3787, 81.0000
9.3767, 81.0000
9.3746, 81.0000
9.3725, 81.0000
9.3705, 81.0000
9.3684, 81.0000
9.3664, 81.0000
9.3643, 81.0000
9.3622, 81.0000
9.3602, 81.0000
9.3581, 81.0000
9.3560, 81.0000
9.3540, 81.0000
9.3519, 81.0000
9.3498, 81.0000
9.3478, 81.0000
9.3457, 81.0000
9.3437, 81.0000
9.3416, 81.0000
9.3395, 81.0000
9.3375, 81.0000
9.3354, 80.0000
9.3333, 80.0000
9.3313, 80.0000
9.3292, 80.0000
9.3271, 80.0000
9.3251, 80.0000
9.3230, 80.0000
9.3209, 80.0000
9.3189, 80.0000
9.3168, 80.0000
9.3148, 80.0000
9.3127, 80.0000
9.3106, 80.0000
9.3086, 80.0000
9.3065, 80.0000
9.3044, 80.0000
9.3024, 80.0000
9.3003, 81.0000
9.2982, 81.0000
9.2962, 81.0000
9.2941, 81.0000
9.2921, 81.0000
9.2900, 81.0000
9.2879, 81.0000
9.2859, 81.0000
9.2838, 80.0000
9.2817, 80.0000
9.2797, 80.0000
9.2776, 80.0000
9.2755, 81.0000
9.2735, 81.0000
9.2714, 81.0000
9.2693, 81.0000
9.2673, 81.0000
9.2652, 81.0000
9.2632, 81.0000
9.2611, 81.0000
9.2590, 81.0000
9.2570, 81.0000
9.2549, 81.0000
9.2528, 81.0000
9.2508, 81.0000
9.2487, 81.0000
9.2466, 81.0000
9.2446, 80.0000
9.2425, 80.0000
9.2405, 80.0000
9.2384, 80.0000
9.2363, 80.0000
9.2343, 80.0000
9.2322, 80.0000
9.2301, 80.0000
9.2281, 80.0000
9.2260, 80.0000
9.2239, 81.0000
9.2219, 81.0000
9.2198, 81.0000
9.2178, 81.0000
9.2157, 81.0000
9.2136, 81.0000
9.2116, 81.0000
9.2095, 81.0000
9.2074, 81.0000
9.2054, 81.0000
9.2033, 80.0000
9.2012, 80.0000
9.1992, 80.0000
9.1971, 80.0000
9.1950, 80.0000
9.1930, 81.0000
9.1909, 81.0000
9.1889, 81.0000
9.1868, 81.0000
9.1847, 81.0000
9.1827, 81.0000
9.1806, 81.0000
9.1785, 81.0000
9.1765, 81.0000
9.1744, 81.0000
9.1723, 81.0000
9.1703, 81.0000
9.1682, 81.0000
9.1662, 81.0000
9.1641, 80.0000
9.1620, 80.0000
9.1600, 80.0000
9.1579, 80.0000
9.1558, 80.0000
9.1538, 81.0000
9.1517, 81.0000
9.1496, 81.0000
9.1476, 81.0000
9.1455, 81.0000
9.1434, 81.0000
9.1414, 81.0000
9.1393, 81.0000
9.1373, 81.0000
9.1352, 81.0000
9.1331, 81.0000
9.1311, 81.0000
9.1290, 81.0000
9.1269, 81.0000
9.1249, 81.0000
9.1228, 81.0000
9.1207, 81.0000
9.1187, 81.0000
9.1166, 81.0000
9.1146, 81.0000
9.1125, 81.0000
9.1104, 81.0000
9.1084, 81.0000
9.1063, 81.0000
9.1042, 81.0000
9.1022, 81.0000
9.1001, 81.0000
9.0980, 81.0000
9.0960, 81.0000
9.0939, 81.0000
9.0918, 81.0000
9.0898, 81.0000
9.0877, 81.0000
9.0857, 81.0000
9.0836, 81.0000
9.0815, 81.0000
9.0795, 81.0000
9.0774, 81.0000
9.0753, 81.0000
9.0733, 81.0000
9.0712, 81.0000
9.0691, 81.0000
9.0671, 81.0000
9.0650, 81.0000
9.0630, 81.0000
9.0609, 81.0000
9.0588, 81.0000
9.0568, 81.0000
9.0547, 81.0000
9.0526, 81.0000
9.0506, 81.0000
9.0485, 81.0000
9.0464, 81.0000
9.0444, 81.0000
9.0423, 81.0000
9.0402, 81.0000
9.0382, 81.0000
9.0361, 81.0000
9.0341, 81.0000
9.0320, 81.0000
9.0299, 81.0000
9.0279, 81.0000
9.0258, 81.0000
9.0237, 81.0000
9.0217, 80.0000
9.0196, 80.0000
9.0175, 80.0000
9.0155, 80.0000
9.0134, 80.0000
9.0114, 81.0000
9.0093, 81.0000
9.0072, 81.0000
9.0052, 81.0000
9.0031, 81.0000
9.0010, 81.0000
8.9990, 81.0000
8.9969, 81.0000
8.9948, 81.0000
8.9928, 81.0000
8.9907, 81.0000
8.9886, 81.0000
8.9866, 81.0000
8.9845, 81.0000
8.9825, 81.0000
8.9804, 81.0000
8.9783, 81.0000
8.9763, 81.0000
8.9742, 81.0000
8.9721, 80.0000
8.9701, 80.0000
8.9680, 80.0000
8.9659, 80.0000
8.9639, 80.0000
8.9618, 80.0000
8.9598, 79.0000
8.9577, 81.0000
8.9556, 81.0000
8.9536, 81.0000
8.9515, 81.0000
8.9494, 81.0000
8.9474, 81.0000
8.9453, 81.0000
8.9432, 82.0000
8.9412, 82.0000
8.9391, 82.0000
8.9370, 82.0000
8.9350, 82.0000
8.9329, 82.0000
8.9309, 82.0000
8.9288, 82.0000
8.9267, 81.0000
8.9247, 81.0000
8.9226, 81.0000
8.9205, 81.0000
8.9185, 81.0000
8.9164, 81.0000
8.9143, 81.0000
8.9123, 81.0000
8.9102, 81.0000
8.9082, 81.0000
8.9061, 81.0000
8.9040, 81.0000
8.9020, 81.0000
8.8999, 81.0000
8.8978, 81.0000
8.8958, 81.0000
8.8937, 81.0000
8.8916, 81.0000
8.8896, 81.0000
8.8875, 81.0000
8.8854, 81.0000
8.8834, 81.0000
8.8813, 81.0000
8.8793, 81.0000
8.8772, 81.0000
8.8751, 81.0000
8.8731, 81.0000
8.8710, 81.0000
8.8689, 81.0000
8.8669, 81.0000
8.8648, 80.0000
8.8627, 80.0000
8.8607, 80.0000
8.8586, 80.0000
8.8566, 80.0000
8.8545, 81.0000
8.8524, 81.0000
8.8504, 81.0000
8.8483, 81.0000
8.8462, 81.0000
8.8442, 81.0000
8.8421, 81.0000
8.8400, 81.0000
8.8380, 81.0000
8.8359, 81.0000
8.8338, 81.0000
8.8318, 81.0000
8.8297, 81.0000
8.8277, 81.0000
8.8256, 81.0000
8.8235, 81.0000
8.8215, 81.0000
8.8194, 81.0000
8.8173, 81.0000
8.8153, 81.0000
8.8132, 81.0000
8.8111, 81.0000
8.8091, 81.0000
8.8070, 81.0000
8.8050, 81.0000
8.8029, 81.0000
8.8008, 81.0000
8.7988, 81.0000
8.7967, 81.0000
8.7946, 81.0000
8.7926, 81.0000
8.7905, 81.0000
8.7884, 81.0000
8.7864, 81.0000
8.7843, 81.0000
8.7822, 81.0000
8.7802, 81.0000
8.7781, 81.0000
8.7761, 81.0000
8.7740, 81.0000
8.7719, 81.0000
8.7699, 81.0000
8.7678, 81.0000
8.7657, 81.0000
8.7637, 81.0000
8.7616, 81.0000
8.7595, 81.0000
8.7575, 81.0000
8.7554, 81.0000
8.7534, 81.0000
8.7513, 81.0000
8.7492, 81.0000
8.7472, 81.0000
8.7451, 80.0000
8.7430, 80.0000
8.7410, 80.0000
8.7389, 80.0000
8.7368, 80.0000
8.7348, 80.0000
8.7327, 80.0000
8.7307, 80.0000
8.7286, 80.0000
8.7265, 80.0000
8.7245, 81.0000
8.7224, 81.0000
8.7203, 81.0000
8.7183, 81.0000
8.7162, 81.0000
8.7141, 81.0000
8.7121, 81.0000
8.7100, 81.0000
8.7079, 81.0000
8.7059, 81.0000
8.7038, 81.0000
8.7018, 81.0000
8.6997, 81.0000
8.6976, 81.0000
8.6956, 81.0000
8.6935, 81.0000
8.6914, 81.0000
8.6894, 81.0000
8.6873, 81.0000
8.6852, 81.0000
8.6832, 81.0000
8.6811, 81.0000
8.6791, 81.0000
8.6770, 81.0000
8.6749, 81.0000
8.6729, 81.0000
8.6708, 81.0000
8.6687, 81.0000
8.6667, 81.0000
8.6646, 81.0000
8.6625, 81.0000
8.6605, 81.0000
8.6584, 81.0000
8.6563, 81.0000
8.6543, 81.0000
8.6522, 81.0000
8.6502, 81.0000
8.6481, 81.0000
8.6460, 81.0000
8.6440, 81.0000
8.6419, 81.0000
8.6398, 81.0000
8.6378, 81.0000
8.6357, 81.0000
8.6336, 81.0000
8.6316, 81.0000
8.6295, 81.0000
8.6275, 81.0000
8.6254, 81.0000
8.6233, 81.0000
8.6213, 81.0000
8.6192, 81.0000
8.6171, 81.0000
8.6151, 81.0000
8.6130, 81.0000
8.6109, 81.0000
8.6089, 81.0000
8.6068, 81.0000
8.6047, 81.0000
8.6027, 81.0000
8.6006, 81.0000
8.5986, 81.0000
8.5965, 81.0000
8.5944, 81.0000
8.5924, 81.0000
8.5903, 81.0000
8.5882, 81.0000
8.5862, 81.0000
8.5841, 81.0000
8.5820, 81.0000
8.5800, 81.0000
8.5779, 81.0000
8.5759, 81.0000
8.5738, 81.0000
8.5717, 81.0000
8.5697, 81.0000
8.5676, 81.0000
8.5655, 81.0000
8.5635, 81.0000
8.5614, 81.0000
8.5593, 81.0000
8.5573, 81.0000
8.5552, 81.0000
8.5531, 81.0000
8.5511, 81.0000
8.5490, 81.0000
8.5470, 81.0000
8.5449, 81.0000
8.5428, 81.0000
8.5408, 81.0000
8.5387, 81.0000
8.5366, 81.0000
8.5346, 81.0000
8.5325, 81.0000
8.5304, 81.0000
8.5284, 81.0000
8.5263, 81.0000
8.5243, 81.0000
8.5222, 81.0000
8.5201, 81.0000
8.5181, 81.0000
8.5160, 81.0000
8.5139, 81.0000
8.5119, 81.0000
8.5098, 81.0000
8.5077, 81.0000
8.5057, 81.0000
8.5036, 81.0000
8.5015, 81.0000
8.4995, 81.0000
8.4974, 81.0000
8.4954, 81.0000
8.4933, 81.0000
8.4912, 81.0000
8.4892, 81.0000
8.4871, 81.0000
8.4850, 81.0000
8.4830, 81.0000
8.4809, 81.0000
8.4788, 81.0000
8.4768, 81.0000
8.4747, 81.0000
8.4727, 81.0000
8.4706, 81.0000
8.4685, 81.0000
8.4665, 81.0000
8.4644, 81.0000
8.4623, 81.0000
8.4603, 81.0000
8.4582, 81.0000
8.4561, 81.0000
8.4541, 81.0000
8.4520, 81.0000
8.4499, 81.0000
8.4479, 81.0000
8.4458, 81.0000
8.4438, 81.0000
8.4417, 81.0000
8.4396, 81.0000
8.4376, 81.0000
8.4355, 81.0000
8.4334, 81.0000
8.4314, 81.0000
8.4293, 81.0000
8.4272, 81.0000
8.4252, 81.0000
8.4231, 81.0000
8.4211, 81.0000
8.4190, 81.0000
8.4169, 81.0000
8.4149, 81.0000
8.4128, 81.0000
8.4107, 81.0000
8.4087, 81.0000
8.4066, 81.0000
8.4045, 81.0000
8.4025, 81.0000
8.4004, 81.0000
8.3983, 81.0000
8.3963, 81.0000
8.3942, 81.0000
8.3922, 81.0000
8.3901, 81.0000
8.3880, 81.0000
8.3860, 81.0000
8.3839, 81.0000
8.3818, 81.0000
8.3798, 81.0000
8.3777, 81.0000
8.3756, 81.0000
8.3736, 81.0000
8.3715, 81.0000
8.3695, 81.0000
8.3674, 81.0000
8.3653, 81.0000
8.3633, 81.0000
8.3612, 81.0000
8.3591, 81.0000
8.3571, 81.0000
8.3550, 81.0000
8.3529, 81.0000
8.3509, 81.0000
8.3488, 81.0000
8.3467, 81.0000
8.3447, 81.0000
8.3426, 81.0000
8.3406, 81.0000
8.3385, 81.0000
8.3364, 81.0000
8.3344, 81.0000
8.3323, 81.0000
8.3302, 81.0000
8.3282, 81.0000
8.3261, 81.0000
8.3240, 81.0000
8.3220, 81.0000
8.3199, 81.0000
8.3179, 81.0000
8.3158, 81.0000
8.3137, 81.0000
8.3117, 81.0000
8.3096, 80.0000
8.3075, 80.0000
8.3055, 80.0000
8.3034, 80.0000
8.3013, 80.0000
8.2993, 81.0000
8.2972, 81.0000
8.2951, 81.0000
8.2931, 81.0000
8.2910, 81.0000
8.2890, 81.0000
8.2869, 81.0000
8.2848, 81.0000
8.2828, 81.0000
8.2807, 81.0000
8.2786, 81.0000
8.2766, 81.0000
8.2745, 81.0000
8.2724, 81.0000
8.2704, 81.0000
8.2683, 81.0000
8.2663, 81.0000
8.2642, 81.0000
8.2621, 81.0000
8.2601, 81.0000
8.2580, 81.0000
8.2559, 81.0000
8.2539, 81.0000
8.2518, 81.0000
8.2497, 81.0000
8.2477, 81.0000
8.2456, 81.0000
8.2436, 81.0000
8.2415, 81.0000
8.2394, 81.0000
8.2374, 81.0000
8.2353, 81.0000
8.2332, 81.0000
8.2312, 81.0000
8.2291, 81.0000
8.2270, 81.0000
8.2250, 81.0000
8.2229, 81.0000
8.2208, 81.0000
8.2188, 81.0000
8.2167, 81.0000
8.2147, 81.0000
8.2126, 81.0000
8.2105, 81.0000
8.2085, 81.0000
8.2064, 81.0000
8.2043, 81.0000
8.2023, 81.0000
8.2002, 81.0000
8.1981, 81.0000
8.1961, 81.0000
8.1940, 81.0000
8.1920, 81.0000
8.1899, 81.0000
8.1878, 81.0000
8.1858, 81.0000
8.1837, 81.0000
8.1816, 81.0000
8.1796, 81.0000
8.1775, 81.0000
8.1754, 81.0000
8.1734, 81.0000
8.1713, 81.0000
8.1692, 81.0000
8.1672, 81.0000
8.1651, 81.0000
8.1631, 81.0000
8.1610, 81.0000
8.1589, 81.0000
8.1569, 81.0000
8.1548, 81.0000
8.1527, 81.0000
8.1507, 81.0000
8.1486, 81.0000
8.1465, 81.0000
8.1445, 81.0000
8.1424, 81.0000
8.1404, 81.0000
8.1383, 81.0000
8.1362, 81.0000
8.1342, 81.0000
8.1321, 81.0000
8.1300, 81.0000
8.1280, 81.0000
8.1259, 81.0000
8.1238, 82.0000
8.1218, 82.0000
8.1197, 82.0000
8.1176, 82.0000
8.1156, 82.0000
8.1135, 81.0000
8.1115, 81.0000
8.1094, 81.0000
8.1073, 80.0000
8.1053, 80.0000
8.1032, 80.0000
8.1011, 80.0000
8.0991, 80.0000
8.0970, 83.0000
8.0949, 83.0000
8.0929, 81.0000
8.0908, 80.0000
8.0888, 80.0000
8.0867, 80.0000
8.0846, 80.0000
8.0826, 80.0000
8.0805, 80.0000
8.0784, 79.0000
8.0764, 78.0000
8.0743, 80.0000
8.0722, 80.0000
8.0702, 80.0000
8.0681, 80.0000
8.0660, 80.0000
8.0640, 80.0000
8.0619, 79.0000
8.0599, 79.0000
8.0578, 79.0000
8.0557, 79.0000
8.0537, 79.0000
8.0516, 80.0000
8.0495, 80.0000
8.0475, 81.0000
8.0454, 81.0000
8.0433, 81.0000
8.0413, 81.0000
8.0392, 81.0000
8.0372, 81.0000
8.0351, 81.0000
8.0330, 80.0000
8.0310, 80.0000
8.0289, 80.0000
8.0268, 80.0000
8.0248, 80.0000
8.0227, 81.0000
8.0206, 81.0000
8.0186, 81.0000
8.0165, 81.0000
8.0144, 81.0000
8.0124, 81.0000
8.0103, 81.0000
8.0083, 81.0000
8.0062, 81.0000
8.0041, 81.0000
8.0021, 81.0000
8.0000, 81.0000
7.9979, 81.0000
7.9959, 81.0000
7.9938, 81.0000
7.9917, 81.0000
7.9897, 81.0000
7.9876, 81.0000
7.9856, 81.0000
7.9835, 81.0000
7.9814, 80.0000
7.9794, 80.0000
7.9773, 80.0000
7.9752, 80.0000
7.9732, 80.0000
7.9711, 80.0000
7.9690, 80.0000
7.9670, 80.0000
7.9649, 80.0000
7.9628, 80.0000
7.9608, 80.0000
7.9587, 80.0000
7.9567, 80.0000
7.9546, 80.0000
7.9525, 80.0000
7.9505, 81.0000
7.9484, 81.0000
7.9463, 81.0000
7.9443, 81.0000
7.9422, 81.0000
7.9401, 81.0000
7.9381, 81.0000
7.9360, 81.0000
7.9340, 81.0000
7.9319, 81.0000
7.9298, 81.0000
7.9278, 81.0000
7.9257, 81.0000
7.9236, 81.0000
7.9216, 81.0000
7.9195, 81.0000
7.9174, 81.0000
7.9154, 81.0000
7.9133, 81.0000
7.9112, 81.0000
7.9092, 81.0000
7.9071, 81.0000
7.9051, 81.0000
7.9030, 81.0000
7.9009, 81.0000
7.8989, 81.0000
7.8968, 81.0000
7.8947, 81.0000
7.8927, 81.0000
7.8906, 81.0000
7.8885, 81.0000
7.8865, 81.0000
7.8844, 81.0000
7.8824, 81.0000
7.8803, 81.0000
7.8782, 81.0000
7.8762, 81.0000
7.8741, 81.0000
7.8720, 81.0000
7.8700, 81.0000
7.8679, 81.0000
7.8658, 81.0000
7.8638, 81.0000
7.8617, 81.0000
7.8596, 81.0000
7.8576, 81.0000
7.8555, 81.0000
7.8535, 81.0000
7.8514, 81.0000
7.8493, 81.0000
7.8473, 81.0000
7.8452, 81.0000
7.8431, 81.0000
7.8411, 81.0000
7.8390, 81.0000
7.8369, 81.0000
7.8349, 81.0000
7.8328, 81.0000
7.8308, 81.0000
7.8287, 81.0000
7.8266, 81.0000
7.8246, 81.0000
7.8225, 81.0000
7.8204, 81.0000
7.8184, 81.0000
7.8163, 81.0000
7.8142, 81.0000
7.8122, 81.0000
7.8101, 81.0000
7.8080, 81.0000
7.8060, 81.0000
7.8039, 81.0000
7.8019, 81.0000
7.7998, 81.0000
7.7977, 81.0000
7.7957, 81.0000
7.7936, 81.0000
7.7915, 81.0000
7.7895, 81.0000
7.7874, 81.0000
7.7853, 81.0000
7.7833, 81.0000
7.7812, 81.0000
7.7792, 81.0000
7.7771, 81.0000
7.7750, 81.0000
7.7730, 81.0000
7.7709, 81.0000
7.7688, 81.0000
7.7668, 81.0000
7.7647, 80.0000
7.7626, 80.0000
7.7606, 80.0000
7.7585, 80.0000
7.7564, 81.0000
7.7544, 81.0000
7.7523, 81.0000
7.7503, 82.0000
7.7482, 82.0000
7.7461, 82.0000
7.7441, 82.0000
7.7420, 82.0000
7.7399, 82.0000
7.7379, 82.0000
7.7358, 82.0000
7.7337, 82.0000
7.7317, 82.0000
7.7296, 82.0000
7.7276, 82.0000
7.7255, 83.0000
7.7234, 83.0000
7.7214, 83.0000
7.7193, 83.0000
7.7172, 83.0000
7.7152, 83.0000
7.7131, 83.0000
7.7110, 83.0000
7.7090, 82.0000
7.7069, 82.0000
7.7049, 81.0000
7.7028, 81.0000
7.7007, 81.0000
7.6987, 80.0000
7.6966, 80.0000
7.6945, 79.0000
7.6925, 79.0000
7.6904, 79.0000
7.6883, 78.0000
7.6863, 78.0000
7.6842, 78.0000
7.6821, 78.0000
7.6801, 78.0000
7.6780, 79.0000
7.6760, 79.0000
7.6739, 79.0000
7.6718, 79.0000
7.6698, 79.0000
7.6677, 79.0000
7.6656, 79.0000
7.6636, 79.0000
7.6615, 79.0000
7.6594, 79.0000
7.6574, 79.0000
7.6553, 79.0000
7.6533, 79.0000
7.6512, 79.0000
7.6491, 80.0000
7.6471, 80.0000
7.6450, 81.0000
7.6429, 81.0000
7.6409, 81.0000
7.6388, 81.0000
7.6367, 81.0000
7.6347, 81.0000
7.6326, 81.0000
7.6305, 81.0000
7.6285, 81.0000
7.6264, 81.0000
7.6244, 81.0000
7.6223, 81.0000
7.6202, 81.0000
7.6182, 81.0000
7.6161, 81.0000
7.6140, 81.0000
7.6120, 81.0000
7.6099, 81.0000
7.6078, 81.0000
7.6058, 81.0000
7.6037, 81.0000
7.6017, 81.0000
7.5996, 81.0000
7.5975, 81.0000
7.5955, 81.0000
7.5934, 81.0000
7.5913, 81.0000
7.5893, 81.0000
7.5872, 81.0000
7.5851, 81.0000
7.5831, 81.0000
7.5810, 81.0000
7.5789, 81.0000
7.5769, 81.0000
7.5748, 81.0000
7.5728, 81.0000
7.5707, 81.0000
7.5686, 80.0000
7.5666, 80.0000
7.5645, 80.0000
7.5624, 80.0000
7.5604, 80.0000
7.5583, 81.0000
7.5562, 81.0000
7.5542, 81.0000
7.5521, 81.0000
7.5501, 81.0000
7.5480, 81.0000
7.5459, 81.0000
7.5439, 81.0000
7.5418, 81.0000
7.5397, 81.0000
7.5377, 81.0000
7.5356, 81.0000
7.5335, 81.0000
7.5315, 81.0000
7.5294, 81.0000
7.5273, 81.0000
7.5253, 81.0000
7.5232, 81.0000
7.5212, 81.0000
7.5191, 81.0000
7.5170, 81.0000
7.5150, 81.0000
7.5129, 81.0000
7.5108, 81.0000
7.5088, 81.0000
7.5067, 81.0000
7.5046, 81.0000
7.5026, 81.0000
7.5005, 81.0000
7.4985, 81.0000
7.4964, 81.0000
7.4943, 81.0000
7.4923, 81.0000
7.4902, 81.0000
7.4881, 81.0000
7.4861, 81.0000
7.4840, 81.0000
7.4819, 81.0000
7.4799, 81.0000
7.4778, 81.0000
7.4757, 81.0000
7.4737, 81.0000
7.4716, 81.0000
7.4696, 81.0000
7.4675, 81.0000
7.4654, 81.0000
7.4634, 81.0000
7.4613, 81.0000
7.4592, 81.0000
7.4572, 80.0000
7.4551, 80.0000
7.4530, 80.0000
7.4510, 80.0000
7.4489, 80.0000
7.4469, 81.0000
7.4448, 81.0000
7.4427, 81.0000
7.4407, 81.0000
7.4386, 81.0000
7.4365, 81.0000
7.4345, 81.0000
7.4324, 81.0000
7.4303, 81.0000
7.4283, 81.0000
7.4262, 81.0000
7.4241, 81.0000
7.4221, 81.0000
7.4200, 81.0000
7.4180, 81.0000
7.4159, 81.0000
7.4138, 81.0000
7.4118, 81.0000
7.4097, 81.0000
7.4076, 81.0000
7.4056, 81.0000
7.4035, 81.0000
7.4014, 81.0000
7.3994, 81.0000
7.3973, 81.0000
7.3953, 81.0000
7.3932, 81.0000
7.3911, 81.0000
7.3891, 81.0000
7.3870, 81.0000
7.3849, 81.0000
7.3829, 81.0000
7.3808, 81.0000
7.3787, 81.0000
7.3767, 81.0000
7.3746, 81.0000
7.3725, 81.0000
7.3705, 81.0000
7.3684, 81.0000
7.3664, 81.0000
7.3643, 81.0000
7.3622, 81.0000
7.3602, 81.0000
7.3581, 81.0000
7.3560, 81.0000
7.3540, 81.0000
7.3519, 81.0000
7.3498, 81.0000
7.3478, 81.0000
7.3457, 81.0000
7.3437, 81.0000
7.3416, 81.0000
7.3395, 81.0000
7.3375, 81.0000
7.3354, 81.0000
7.3333, 81.0000
7.3313, 81.0000
7.3292, 81.0000
7.3271, 81.0000
7.3251, 81.0000
7.3230, 81.0000
7.3209, 81.0000
7.3189, 81.0000
7.3168, 81.0000
7.3148, 81.0000
7.3127, 82.0000
7.3106, 83.0000
7.3086, 83.0000
7.3065, 81.0000
7.3044, 80.0000
7.3024, 80.0000
7.3003, 80.0000
7.2982, 80.0000
7.2962, 80.0000
7.2941, 81.0000
7.2921, 81.0000
7.2900, 81.0000
7.2879, 81.0000
7.2859, 81.0000
7.2838, 81.0000
7.2817, 81.0000
7.2797, 81.0000
7.2776, 81.0000
7.2755, 81.0000
7.2735, 81.0000
7.2714, 81.0000
7.2693, 81.0000
7.2673, 81.0000
7.2652, 81.0000
7.2632, 81.0000
7.2611, 81.0000
7.2590, 81.0000
7.2570, 81.0000
7.2549, 82.0000
7.2528, 83.0000
7.2508, 84.0000
7.2487, 96.0000
7.2466, 124.0000
7.2446, 100.0000
7.2425, 84.0000
7.2405, 83.0000
7.2384, 82.0000
7.2363, 81.0000
7.2343, 81.0000
7.2322, 81.0000
7.2301, 81.0000
7.2281, 81.0000
7.2260, 81.0000
7.2239, 81.0000
7.2219, 81.0000
7.2198, 81.0000
7.2178, 81.0000
7.2157, 82.0000
7.2136, 82.0000
7.2116, 82.0000
7.2095, 82.0000
7.2074, 82.0000
7.2054, 82.0000
7.2033, 82.0000
7.2012, 82.0000
7.1992, 82.0000
7.1971, 82.0000
7.1950, 82.0000
7.1930, 82.0000
7.1909, 82.0000
7.1889, 82.0000
7.1868, 82.0000
7.1847, 82.0000
7.1827, 82.0000
7.1806, 82.0000
7.1785, 82.0000
7.1765, 81.0000
7.1744, 81.0000
7.1723, 81.0000
7.1703, 81.0000
7.1682, 81.0000
7.1662, 81.0000
7.1641, 81.0000
7.1620, 81.0000
7.1600, 81.0000
7.1579, 81.0000
7.1558, 81.0000
7.1538, 81.0000
7.1517, 81.0000
7.1496, 81.0000
7.1476, 81.0000
7.1455, 81.0000
7.1434, 81.0000
7.1414, 81.0000
7.1393, 81.0000
7.1373, 81.0000
7.1352, 81.0000
7.1331, 81.0000
7.1311, 80.0000
7.1290, 80.0000
7.1269, 80.0000
7.1249, 80.0000
7.1228, 80.0000
7.1207, 81.0000
7.1187, 81.0000
7.1166, 81.0000
7.1146, 81.0000
7.1125, 81.0000
7.1104, 81.0000
7.1084, 81.0000
7.1063, 81.0000
7.1042, 81.0000
7.1022, 81.0000
7.1001, 81.0000
7.0980, 81.0000
7.0960, 81.0000
7.0939, 81.0000
7.0918, 81.0000
7.0898, 81.0000
7.0877, 81.0000
7.0857, 81.0000
7.0836, 81.0000
7.0815, 81.0000
7.0795, 81.0000
7.0774, 81.0000
7.0753, 81.0000
7.0733, 81.0000
7.0712, 81.0000
7.0691, 81.0000
7.0671, 81.0000
7.0650, 81.0000
7.0630, 81.0000
7.0609, 81.0000
7.0588, 81.0000
7.0568, 81.0000
7.0547, 81.0000
7.0526, 81.0000
7.0506, 81.0000
7.0485, 81.0000
7.0464, 81.0000
7.0444, 81.0000
7.0423, 81.0000
7.0402, 81.0000
7.0382, 81.0000
7.0361, 81.0000
7.0341, 81.0000
7.0320, 81.0000
7.0299, 81.0000
7.0279, 81.0000
7.0258, 81.0000
7.0237, 81.0000
7.0217, 81.0000
7.0196, 81.0000
7.0175, 81.0000
7.0155, 81.0000
7.0134, 81.0000
7.0114, 81.0000
7.0093, 81.0000
7.0072, 81.0000
7.0052, 81.0000
7.0031, 81.0000
7.0010, 81.0000
6.9990, 81.0000
6.9969, 81.0000
6.9948, 81.0000
6.9928, 81.0000
6.9907, 81.0000
6.9886, 81.0000
6.9866, 81.0000
6.9845, 81.0000
6.9825, 81.0000
6.9804, 81.0000
6.9783, 81.0000
6.9763, 81.0000
6.9742, 81.0000
6.9721, 81.0000
6.9701, 81.0000
6.9680, 81.0000
6.9659, 81.0000
6.9639, 81.0000
6.9618, 81.0000
6.9598, 81.0000
6.9577, 81.0000
6.9556, 81.0000
6.9536, 81.0000
6.9515, 81.0000
6.9494, 81.0000
6.9474, 81.0000
6.9453, 81.0000
6.9432, 81.0000
6.9412, 81.0000
6.9391, 81.0000
6.9370, 81.0000
6.9350, 81.0000
6.9329, 81.0000
6.9309, 81.0000
6.9288, 81.0000
6.9267, 81.0000
6.9247, 81.0000
6.9226, 81.0000
6.9205, 81.0000
6.9185, 81.0000
6.9164, 81.0000
6.9143, 81.0000
6.9123, 81.0000
6.9102, 81.0000
6.9082, 81.0000
6.9061, 81.0000
6.9040, 81.0000
6.9020, 81.0000
6.8999, 81.0000
6.8978, 81.0000
6.8958, 81.0000
6.8937, 82.0000
6.8916, 82.0000
6.8896, 82.0000
6.8875, 82.0000
6.8854, 82.0000
6.8834, 82.0000
6.8813, 82.0000
6.8793, 82.0000
6.8772, 82.0000
6.8751, 82.0000
6.8731, 81.0000
6.8710, 81.0000
6.8689, 81.0000
6.8669, 81.0000
6.8648, 81.0000
6.8627, 81.0000
6.8607, 81.0000
6.8586, 81.0000
6.8566, 81.0000
6.8545, 81.0000
6.8524, 81.0000
6.8504, 81.0000
6.8483, 81.0000
6.8462, 81.0000
6.8442, 81.0000
6.8421, 81.0000
6.8400, 81.0000
6.8380, 81.0000
6.8359, 81.0000
6.8338, 81.0000
6.8318, 81.0000
6.8297, 81.0000
6.8277, 81.0000
6.8256, 81.0000
6.8235, 81.0000
6.8215, 81.0000
6.8194, 81.0000
6.8173, 81.0000
6.8153, 81.0000
6.8132, 81.0000
6.8111, 81.0000
6.8091, 81.0000
6.8070, 81.0000
6.8050, 81.0000
6.8029, 81.0000
6.8008, 81.0000
6.7988, 81.0000
6.7967, 81.0000
6.7946, 81.0000
6.7926, 81.0000
6.7905, 81.0000
6.7884, 81.0000
6.7864, 81.0000
6.7843, 81.0000
6.7822, 81.0000
6.7802, 81.0000
6.7781, 81.0000
6.7761, 81.0000
6.7740, 81.0000
6.7719, 81.0000
6.7699, 81.0000
6.7678, 81.0000
6.7657, 81.0000
6.7637, 81.0000
6.7616, 81.0000
6.7595, 81.0000
6.7575, 81.0000
6.7554, 81.0000
6.7534, 81.0000
6.7513, 81.0000
6.7492, 81.0000
6.7472, 81.0000
6.7451, 81.0000
6.7430, 81.0000
6.7410, 81.0000
6.7389, 81.0000
6.7368, 81.0000
6.7348, 81.0000
6.7327, 81.0000
6.7307, 81.0000
6.7286, 81.0000
6.7265, 81.0000
6.7245, 81.0000
6.7224, 81.0000
6.7203, 81.0000
6.7183, 81.0000
6.7162, 81.0000
6.7141, 81.0000
6.7121, 81.0000
6.7100, 81.0000
6.7079, 81.0000
6.7059, 81.0000
6.7038, 81.0000
6.7018, 81.0000
6.6997, 81.0000
6.6976, 81.0000
6.6956, 81.0000
6.6935, 81.0000
6.6914, 81.0000
6.6894, 81.0000
6.6873, 81.0000
6.6852, 81.0000
6.6832, 81.0000
6.6811, 81.0000
6.6791, 81.0000
6.6770, 81.0000
6.6749, 81.0000
6.6729, 81.0000
6.6708, 81.0000
6.6687, 81.0000
6.6667, 81.0000
6.6646, 81.0000
6.6625, 81.0000
6.6605, 81.0000
6.6584, 81.0000
6.6563, 81.0000
6.6543, 81.0000
6.6522, 81.0000
6.6502, 81.0000
6.6481, 81.0000
6.6460, 81.0000
6.6440, 81.0000
6.6419, 81.0000
6.6398, 81.0000
6.6378, 81.0000
6.6357, 81.0000
6.6336, 81.0000
6.6316, 81.0000
6.6295, 81.0000
6.6275, 81.0000
6.6254, 81.0000
6.6233, 81.0000
6.6213, 81.0000
6.6192, 81.0000
6.6171, 81.0000
6.6151, 81.0000
6.6130, 81.0000
6.6109, 81.0000
6.6089, 81.0000
6.6068, 81.0000
6.6047, 81.0000
6.6027, 81.0000
6.6006, 81.0000
6.5986, 81.0000
6.5965, 81.0000
6.5944, 81.0000
6.5924, 81.0000
6.5903, 81.0000
6.5882, 81.0000
6.5862, 81.0000
6.5841, 81.0000
6.5820, 81.0000
6.5800, 81.0000
6.5779, 81.0000
6.5759, 81.0000
6.5738, 81.0000
6.5717, 81.0000
6.5697, 81.0000
6.5676, 81.0000
6.5655, 81.0000
6.5635, 81.0000
6.5614, 81.0000
6.5593, 82.0000
6.5573, 82.0000
6.5552, 82.0000
6.5531, 82.0000
6.5511, 82.0000
6.5490, 82.0000
6.5470, 82.0000
6.5449, 82.0000
6.5428, 82.0000
6.5408, 81.0000
6.5387, 81.0000
6.5366, 81.0000
6.5346, 81.0000
6.5325, 81.0000
6.5304, 81.0000
6.5284, 81.0000
6.5263, 81.0000
6.5243, 81.0000
6.5222, 81.0000
6.5201, 81.0000
6.5181, 81.0000
6.5160, 81.0000
6.5139, 81.0000
6.5119, 81.0000
6.5098, 81.0000
6.5077, 81.0000
6.5057, 81.0000
6.5036, 81.0000
6.5015, 81.0000
6.4995, 81.0000
6.4974, 81.0000
6.4954, 81.0000
6.4933, 81.0000
6.4912, 81.0000
6.4892, 81.0000
6.4871, 81.0000
6.4850, 81.0000
6.4830, 81.0000
6.4809, 81.0000
6.4788, 81.0000
6.4768, 81.0000
6.4747, 81.0000
6.4727, 81.0000
6.4706, 81.0000
6.4685, 81.0000
6.4665, 81.0000
6.4644, 81.0000
6.4623, 81.0000
6.4603, 81.0000
6.4582, 81.0000
6.4561, 81.0000
6.4541, 81.0000
6.4520, 81.0000
6.4499, 81.0000
6.4479, 81.0000
6.4458, 81.0000
6.4438, 81.0000
6.4417, 81.0000
6.4396, 81.0000
6.4376, 81.0000
6.4355, 81.0000
6.4334, 81.0000
6.4314, 81.0000
6.4293, 81.0000
6.4272, 81.0000
6.4252, 81.0000
6.4231, 81.0000
6.4211, 81.0000
6.4190, 81.0000
6.4169, 81.0000
6.4149, 81.0000
6.4128, 81.0000
6.4107, 81.0000
6.4087, 81.0000
6.4066, 81.0000
6.4045, 81.0000
6.4025, 81.0000
6.4004, 81.0000
6.3983, 81.0000
6.3963, 81.0000
6.3942, 81.0000
6.3922, 81.0000
6.3901, 81.0000
6.3880, 81.0000
6.3860, 81.0000
6.3839, 81.0000
6.3818, 81.0000
6.3798, 81.0000
6.3777, 81.0000
6.3756, 81.0000
6.3736, 81.0000
6.3715, 81.0000
6.3695, 81.0000
6.3674, 81.0000
6.3653, 81.0000
6.3633, 81.0000
6.3612, 81.0000
6.3591, 81.0000
6.3571, 81.0000
6.3550, 81.0000
6.3529, 81.0000
6.3509, 81.0000
6.3488, 81.0000
6.3467, 81.0000
6.3447, 81.0000
6.3426, 81.0000
6.3406, 81.0000
6.3385, 81.0000
6.3364, 81.0000
6.3344, 81.0000
6.3323, 81.0000
6.3302, 81.0000
6.3282, 81.0000
6.3261, 81.0000
6.3240, 81.0000
6.3220, 81.0000
6.3199, 81.0000
6.3179, 81.0000
6.3158, 81.0000
6.3137, 81.0000
6.3117, 81.0000
6.3096, 81.0000
6.3075, 81.0000
6.3055, 81.0000
6.3034, 81.0000
6.3013, 81.0000
6.2993, 81.0000
6.2972, 81.0000
6.2951, 81.0000
6.2931, 81.0000
6.2910, 81.0000
6.2890, 81.0000
6.2869, 81.0000
6.2848, 81.0000
6.2828, 81.0000
6.2807, 81.0000
6.2786, 81.0000
6.2766, 81.0000
6.2745, 81.0000
6.2724, 81.0000
6.2704, 81.0000
6.2683, 81.0000
6.2663, 81.0000
6.2642, 81.0000
6.2621, 81.0000
6.2601, 81.0000
6.2580, 81.0000
6.2559, 81.0000
6.2539, 81.0000
6.2518, 81.0000
6.2497, 81.0000
6.2477, 81.0000
6.2456, 81.0000
6.2436, 81.0000
6.2415, 81.0000
6.2394, 81.0000
6.2374, 81.0000
6.2353, 81.0000
6.2332, 81.0000
6.2312, 81.0000
6.2291, 81.0000
6.2270, 81.0000
6.2250, 81.0000
6.2229, 81.0000
6.2208, 81.0000
6.2188, 81.0000
6.2167, 81.0000
6.2147, 81.0000
6.2126, 81.0000
6.2105, 81.0000
6.2085, 81.0000
6.2064, 81.0000
6.2043, 81.0000
6.2023, 81.0000
6.2002, 81.0000
6.1981, 81.0000
6.1961, 81.0000
6.1940, 81.0000
6.1920, 81.0000
6.1899, 81.0000
6.1878, 81.0000
6.1858, 81.0000
6.1837, 81.0000
6.1816, 81.0000
6.1796, 81.0000
6.1775, 81.0000
6.1754, 81.0000
6.1734, 81.0000
6.1713, 82.0000
6.1692, 82.0000
6.1672, 82.0000
6.1651, 82.0000
6.1631, 82.0000
6.1610, 82.0000
6.1589, 82.0000
6.1569, 82.0000
6.1548, 82.0000
6.1527, 82.0000
6.1507, 82.0000
6.1486, 82.0000
6.1465, 81.0000
6.1445, 81.0000
6.1424, 81.0000
6.1404, 81.0000
6.1383, 81.0000
6.1362, 81.0000
6.1342, 81.0000
6.1321, 81.0000
6.1300, 81.0000
6.1280, 81.0000
6.1259, 81.0000
6.1238, 81.0000
6.1218, 81.0000
6.1197, 81.0000
6.1176, 81.0000
6.1156, 81.0000
6.1135, 81.0000
6.1115, 81.0000
6.1094, 81.0000
6.1073, 81.0000
6.1053, 81.0000
6.1032, 81.0000
6.1011, 81.0000
6.0991, 81.0000
6.0970, 81.0000
6.0949, 81.0000
6.0929, 81.0000
6.0908, 81.0000
6.0888, 81.0000
6.0867, 81.0000
6.0846, 81.0000
6.0826, 81.0000
6.0805, 81.0000
6.0784, 81.0000
6.0764, 81.0000
6.0743, 81.0000
6.0722, 81.0000
6.0702, 81.0000
6.0681, 81.0000
6.0660, 81.0000
6.0640, 81.0000
6.0619, 81.0000
6.0599, 81.0000
6.0578, 81.0000
6.0557, 81.0000
6.0537, 81.0000
6.0516, 81.0000
6.0495, 81.0000
6.0475, 81.0000
6.0454, 81.0000
6.0433, 81.0000
6.0413, 81.0000
6.0392, 81.0000
6.0372, 81.0000
6.0351, 81.0000
6.0330, 81.0000
6.0310, 81.0000
6.0289, 81.0000
6.0268, 81.0000
6.0248, 81.0000
6.0227, 81.0000
6.0206, 81.0000
6.0186, 81.0000
6.0165, 81.0000
6.0144, 81.0000
6.0124, 81.0000
6.0103, 81.0000
6.0083, 81.0000
6.0062, 81.0000
6.0041, 81.0000
6.0021, 81.0000
6.0000, 81.0000
5.9979, 81.0000
5.9959, 81.0000
5.9938, 81.0000
5.9917, 81.0000
5.9897, 81.0000
5.9876, 81.0000
5.9856, 81.0000
5.9835, 81.0000
5.9814, 81.0000
5.9794, 81.0000
5.9773, 81.0000
5.9752, 82.0000
5.9732, 82.0000
5.9711, 83.0000
5.9690, 83.0000
5.9670, 83.0000
5.9649, 83.0000
5.9628, 83.0000
5.9608, 83.0000
5.9587, 83.0000
5.9567, 83.0000
5.9546, 82.0000
5.9525, 82.0000
5.9505, 82.0000
5.9484, 82.0000
5.9463, 82.0000
5.9443, 81.0000
5.9422, 81.0000
5.9401, 81.0000
5.9381, 81.0000
5.9360, 81.0000
5.9340, 81.0000
5.9319, 81.0000
5.9298, 81.0000
5.9278, 81.0000
5.9257, 81.0000
5.9236, 81.0000
5.9216, 81.0000
5.9195, 81.0000
5.9174, 81.0000
5.9154, 81.0000
5.9133, 81.0000
5.9112, 81.0000
5.9092, 81.0000
5.9071, 81.0000
5.9051, 81.0000
5.9030, 81.0000
5.9009, 81.0000
5.8989, 81.0000
5.8968, 81.0000
5.8947, 81.0000
5.8927, 81.0000
5.8906, 81.0000
5.8885, 81.0000
5.8865, 81.0000
5.8844, 82.0000
5.8824, 82.0000
5.8803, 82.0000
5.8782, 82.0000
5.8762, 82.0000
5.8741, 82.0000
5.8720, 82.0000
5.8700, 82.0000
5.8679, 82.0000
5.8658, 82.0000
5.8638, 82.0000
5.8617, 82.0000
5.8596, 82.0000
5.8576, 82.0000
5.8555, 82.0000
5.8535, 82.0000
5.8514, 82.0000
5.8493, 82.0000
5.8473, 82.0000
5.8452, 82.0000
5.8431, 81.0000
5.8411, 81.0000
5.8390, 81.0000
5.8369, 81.0000
5.8349, 81.0000
5.8328, 81.0000
5.8308, 81.0000
5.8287, 81.0000
5.8266, 81.0000
5.8246, 81.0000
5.8225, 81.0000
5.8204, 81.0000
5.8184, 81.0000
5.8163, 81.0000
5.8142, 81.0000
5.8122, 81.0000
5.8101, 81.0000
5.8080, 81.0000
5.8060, 81.0000
5.8039, 81.0000
5.8019, 81.0000
5.7998, 81.0000
5.7977, 81.0000
5.7957, 81.0000
5.7936, 81.0000
5.7915, 81.0000
5.7895, 81.0000
5.7874, 81.0000
5.7853, 81.0000
5.7833, 81.0000
5.7812, 81.0000
5.7792, 81.0000
5.7771, 81.0000
5.7750, 81.0000
5.7730, 82.0000
5.7709, 82.0000
5.7688, 82.0000
5.7668, 82.0000
5.7647, 82.0000
5.7626, 82.0000
5.7606, 82.0000
5.7585, 82.0000
5.7564, 82.0000
5.7544, 82.0000
5.7523, 81.0000
5.7503, 81.0000
5.7482, 81.0000
5.7461, 81.0000
5.7441, 81.0000
5.7420, 81.0000
5.7399, 81.0000
5.7379, 81.0000
5.7358, 81.0000
5.7337, 81.0000
5.7317, 81.0000
5.7296, 81.0000
5.7276, 81.0000
5.7255, 81.0000
5.7234, 81.0000
5.7214, 81.0000
5.7193, 81.0000
5.7172, 81.0000
5.7152, 81.0000
5.7131, 81.0000
5.7110, 81.0000
5.7090, 81.0000
5.7069, 81.0000
5.7049, 81.0000
5.7028, 81.0000
5.7007, 81.0000
5.6987, 81.0000
5.6966, 81.0000
5.6945, 81.0000
5.6925, 81.0000
5.6904, 81.0000
5.6883, 81.0000
5.6863, 81.0000
5.6842, 81.0000
5.6821, 81.0000
5.6801, 81.0000
5.6780, 81.0000
5.6760, 81.0000
5.6739, 81.0000
5.6718, 81.0000
5.6698, 81.0000
5.6677, 81.0000
5.6656, 81.0000
5.6636, 81.0000
5.6615, 81.0000
5.6594, 81.0000
5.6574, 81.0000
5.6553, 81.0000
5.6533, 81.0000
5.6512, 81.0000
5.6491, 81.0000
5.6471, 81.0000
5.6450, 81.0000
5.6429, 81.0000
5.6409, 82.0000
5.6388, 82.0000
5.6367, 82.0000
5.6347, 82.0000
5.6326, 82.0000
5.6305, 82.0000
5.6285, 82.0000
5.6264, 81.0000
5.6244, 81.0000
5.6223, 81.0000
5.6202, 81.0000
5.6182, 81.0000
5.6161, 81.0000
5.6140, 81.0000
5.6120, 81.0000
5.6099, 81.0000
5.6078, 81.0000
5.6058, 81.0000
5.6037, 81.0000
5.6017, 81.0000
5.5996, 81.0000
5.5975, 81.0000
5.5955, 81.0000
5.5934, 81.0000
5.5913, 81.0000
5.5893, 81.0000
5.5872, 81.0000
5.5851, 81.0000
5.5831, 81.0000
5.5810, 81.0000
5.5789, 81.0000
5.5769, 81.0000
5.5748, 81.0000
5.5728, 81.0000
5.5707, 82.0000
5.5686, 82.0000
5.5666, 82.0000
5.5645, 82.0000
5.5624, 82.0000
5.5604, 82.0000
5.5583, 82.0000
5.5562, 82.0000
5.5542, 82.0000
5.5521, 82.0000
5.5501, 81.0000
5.5480, 81.0000
5.5459, 81.0000
5.5439, 81.0000
5.5418, 81.0000
5.5397, 82.0000
5.5377, 82.0000
5.5356, 82.0000
5.5335, 82.0000
5.5315, 82.0000
5.5294, 82.0000
5.5273, 82.0000
5.5253, 82.0000
5.5232, 82.0000
5.5212, 82.0000
5.5191, 82.0000
5.5170, 82.0000
5.5150, 82.0000
5.5129, 82.0000
5.5108, 82.0000
5.5088, 82.0000
5.5067, 82.0000
5.5046, 82.0000
5.5026, 82.0000
5.5005, 81.0000
5.4985, 81.0000
5.4964, 81.0000
5.4943, 81.0000
5.4923, 81.0000
5.4902, 81.0000
5.4881, 81.0000
5.4861, 81.0000
5.4840, 81.0000
5.4819, 81.0000
5.4799, 82.0000
5.4778, 82.0000
5.4757, 82.0000
5.4737, 82.0000
5.4716, 82.0000
5.4696, 82.0000
5.4675, 82.0000
5.4654, 82.0000
5.4634, 82.0000
5.4613, 82.0000
5.4592, 81.0000
5.4572, 81.0000
5.4551, 81.0000
5.4530, 81.0000
5.4510, 81.0000
5.4489, 82.0000
5.4469, 82.0000
5.4448, 82.0000
5.4427, 82.0000
5.4407, 82.0000
5.4386, 82.0000
5.4365, 82.0000
5.4345, 82.0000
5.4324, 82.0000
5.4303, 82.0000
5.4283, 82.0000
5.4262, 82.0000
5.4241, 82.0000
5.4221, 82.0000
5.4200, 82.0000
5.4180, 82.0000
5.4159, 82.0000
5.4138, 81.0000
5.4118, 81.0000
5.4097, 81.0000
5.4076, 81.0000
5.4056, 81.0000
5.4035, 81.0000
5.4014, 81.0000
5.3994, 82.0000
5.3973, 82.0000
5.3953, 82.0000
5.3932, 82.0000
5.3911, 82.0000
5.3891, 82.0000
5.3870, 82.0000
5.3849, 82.0000
5.3829, 82.0000
5.3808, 82.0000
5.3787, 82.0000
5.3767, 82.0000
5.3746, 82.0000
5.3725, 82.0000
5.3705, 82.0000
5.3684, 81.0000
5.3664, 81.0000
5.3643, 81.0000
5.3622, 81.0000
5.3602, 81.0000
5.3581, 81.0000
5.3560, 81.0000
5.3540, 81.0000
5.3519, 81.0000
5.3498, 81.0000
5.3478, 81.0000
5.3457, 81.0000
5.3437, 81.0000
5.3416, 81.0000
5.3395, 81.0000
5.3375, 81.0000
5.3354, 81.0000
5.3333, 81.0000
5.3313, 81.0000
5.3292, 81.0000
5.3271, 82.0000
5.3251, 82.0000
5.3230, 82.0000
5.3209, 82.0000
5.3189, 82.0000
5.3168, 82.0000
5.3148, 82.0000
5.3127, 82.0000
5.3106, 82.0000
5.3086, 82.0000
5.3065, 82.0000
5.3044, 82.0000
5.3024, 82.0000
5.3003, 82.0000
5.2982, 81.0000
5.2962, 81.0000
5.2941, 81.0000
5.2921, 81.0000
5.2900, 81.0000
5.2879, 81.0000
5.2859, 81.0000
5.2838, 81.0000
5.2817, 81.0000
5.2797, 81.0000
5.2776, 82.0000
5.2755, 82.0000
5.2735, 82.0000
5.2714, 82.0000
5.2693, 82.0000
5.2673, 82.0000
5.2652, 82.0000
5.2632, 82.0000
5.2611, 82.0000
5.2590, 82.0000
5.2570, 81.0000
5.2549, 81.0000
5.2528, 81.0000
5.2508, 81.0000
5.2487, 81.0000
5.2466, 82.0000
5.2446, 82.0000
5.2425, 82.0000
5.2405, 82.0000
5.2384, 82.0000
5.2363, 82.0000
5.2343, 82.0000
5.2322, 82.0000
5.2301, 82.0000
5.2281, 82.0000
5.2260, 82.0000
5.2239, 82.0000
5.2219, 82.0000
5.2198, 82.0000
5.2178, 81.0000
5.2157, 81.0000
5.2136, 81.0000
5.2116, 81.0000
5.2095, 81.0000
5.2074, 82.0000
5.2054, 82.0000
5.2033, 82.0000
5.2012, 82.0000
5.1992, 82.0000
5.1971, 82.0000
5.1950, 82.0000
5.1930, 82.0000
5.1909, 82.0000
5.1889, 82.0000
5.1868, 82.0000
5.1847, 82.0000
5.1827, 82.0000
5.1806, 82.0000
5.1785, 82.0000
5.1765, 81.0000
5.1744, 81.0000
5.1723, 81.0000
5.1703, 81.0000
5.1682, 81.0000
5.1662, 81.0000
5.1641, 81.0000
5.1620, 81.0000
5.1600, 81.0000
5.1579, 81.0000
5.1558, 81.0000
5.1538, 81.0000
5.1517, 81.0000
5.1496, 81.0000
5.1476, 81.0000
5.1455, 82.0000
5.1434, 82.0000
5.1414, 82.0000
5.1393, 82.0000
5.1373, 82.0000
5.1352, 82.0000
5.1331, 82.0000
5.1311, 82.0000
5.1290, 82.0000
5.1269, 82.0000
5.1249, 82.0000
5.1228, 82.0000
5.1207, 82.0000
5.1187, 82.0000
5.1166, 81.0000
5.1146, 81.0000
5.1125, 81.0000
5.1104, 81.0000
5.1084, 81.0000
5.1063, 81.0000
5.1042, 81.0000
5.1022, 81.0000
5.1001, 81.0000
5.0980, 81.0000
5.0960, 81.0000
5.0939, 81.0000
5.0918, 81.0000
5.0898, 81.0000
5.0877, 81.0000
5.0857, 81.0000
5.0836, 81.0000
5.0815, 81.0000
5.0795, 81.0000
5.0774, 81.0000
5.0753, 82.0000
5.0733, 82.0000
5.0712, 82.0000
5.0691, 82.0000
5.0671, 82.0000
5.0650, 82.0000
5.0630, 82.0000
5.0609, 82.0000
5.0588, 82.0000
5.0568, 82.0000
5.0547, 81.0000
5.0526, 81.0000
5.0506, 81.0000
5.0485, 81.0000
5.0464, 81.0000
5.0444, 81.0000
5.0423, 81.0000
5.0402, 81.0000
5.0382, 81.0000
5.0361, 81.0000
5.0341, 81.0000
5.0320, 81.0000
5.0299, 81.0000
5.0279, 81.0000
5.0258, 81.0000
5.0237, 81.0000
5.0217, 81.0000
5.0196, 81.0000
5.0175, 81.0000
5.0155, 82.0000
5.0134, 82.0000
5.0114, 82.0000
5.0093, 82.0000
5.0072, 82.0000
5.0052, 82.0000
5.0031, 82.0000
5.0010, 82.0000
4.9990, 82.0000
4.9969, 82.0000
4.9948, 82.0000
4.9928, 82.0000
4.9907, 82.0000
4.9886, 82.0000
4.9866, 82.0000
4.9845, 82.0000
4.9825, 82.0000
4.9804, 82.0000
4.9783, 82.0000
4.9763, 82.0000
4.9742, 82.0000
4.9721, 82.0000
4.9701, 82.0000
4.9680, 82.0000
4.9659, 82.0000
4.9639, 82.0000
4.9618, 82.0000
4.9598, 82.0000
4.9577, 82.0000
4.9556, 82.0000
4.9536, 82.0000
4.9515, 82.0000
4.9494, 82.0000
4.9474, 82.0000
4.9453, 82.0000
4.9432, 83.0000
4.9412, 83.0000
4.9391, 83.0000
4.9370, 83.0000
4.9350, 83.0000
4.9329, 83.0000
4.9309, 82.0000
4.9288, 82.0000
4.9267, 82.0000
4.9247, 82.0000
4.9226, 82.0000
4.9205, 82.0000
4.9185, 82.0000
4.9164, 82.0000
4.9143, 82.0000
4.9123, 82.0000
4.9102, 82.0000
4.9082, 82.0000
4.9061, 82.0000
4.9040, 82.0000
4.9020, 82.0000
4.8999, 82.0000
4.8978, 82.0000
4.8958, 82.0000
4.8937, 82.0000
4.8916, 82.0000
4.8896, 82.0000
4.8875, 82.0000
4.8854, 82.0000
4.8834, 82.0000
4.8813, 82.0000
4.8793, 82.0000
4.8772, 82.0000
4.8751, 82.0000
4.8731, 81.0000
4.8710, 81.0000
4.8689, 81.0000
4.8669, 81.0000
4.8648, 81.0000
4.8627, 81.0000
4.8607, 81.0000
4.8586, 81.0000
4.8566, 81.0000
4.8545, 81.0000
4.8524, 82.0000
4.8504, 82.0000
4.8483, 82.0000
4.8462, 82.0000
4.8442, 82.0000
4.8421, 82.0000
4.8400, 82.0000
4.8380, 82.0000
4.8359, 82.0000
4.8338, 82.0000
4.8318, 82.0000
4.8297, 82.0000
4.8277, 82.0000
4.8256, 82.0000
4.8235, 82.0000
4.8215, 82.0000
4.8194, 82.0000
4.8173, 82.0000
4.8153, 82.0000
4.8132, 82.0000
4.8111, 82.0000
4.8091, 82.0000
4.8070, 82.0000
4.8050, 82.0000
4.8029, 82.0000
4.8008, 82.0000
4.7988, 82.0000
4.7967, 82.0000
4.7946, 82.0000
4.7926, 82.0000
4.7905, 82.0000
4.7884, 82.0000
4.7864, 82.0000
4.7843, 82.0000
4.7822, 82.0000
4.7802, 82.0000
4.7781, 82.0000
4.7761, 82.0000
4.7740, 82.0000
4.7719, 82.0000
4.7699, 82.0000
4.7678, 82.0000
4.7657, 82.0000
4.7637, 82.0000
4.7616, 82.0000
4.7595, 82.0000
4.7575, 82.0000
4.7554, 82.0000
4.7534, 82.0000
4.7513, 82.0000
4.7492, 82.0000
4.7472, 82.0000
4.7451, 82.0000
4.7430, 82.0000
4.7410, 82.0000
4.7389, 82.0000
4.7368, 82.0000
4.7348, 82.0000
4.7327, 82.0000
4.7307, 82.0000
4.7286, 82.0000
4.7265, 82.0000
4.7245, 82.0000
4.7224, 82.0000
4.7203, 82.0000
4.7183, 82.0000
4.7162, 82.0000
4.7141, 82.0000
4.7121, 82.0000
4.7100, 82.0000
4.7079, 82.0000
4.7059, 82.0000
4.7038, 82.0000
4.7018, 82.0000
4.6997, 82.0000
4.6976, 82.0000
4.6956, 82.0000
4.6935, 82.0000
4.6914, 82.0000
4.6894, 82.0000
4.6873, 82.0000
4.6852, 82.0000
4.6832, 82.0000
4.6811, 82.0000
4.6791, 82.0000
4.6770, 82.0000
4.6749, 82.0000
4.6729, 82.0000
4.6708, 82.0000
4.6687, 82.0000
4.6667, 82.0000
4.6646, 82.0000
4.6625, 82.0000
4.6605, 81.0000
4.6584, 81.0000
4.6563, 81.0000
4.6543, 81.0000
4.6522, 82.0000
4.6502, 82.0000
4.6481, 82.0000
4.6460, 82.0000
4.6440, 82.0000
4.6419, 82.0000
4.6398, 82.0000
4.6378, 82.0000
4.6357, 82.0000
4.6336, 82.0000
4.6316, 82.0000
4.6295, 82.0000
4.6275, 82.0000
4.6254, 82.0000
4.6233, 82.0000
4.6213, 82.0000
4.6192, 82.0000
4.6171, 82.0000
4.6151, 82.0000
4.6130, 82.0000
4.6109, 82.0000
4.6089, 82.0000
4.6068, 82.0000
4.6047, 82.0000
4.6027, 82.0000
4.6006, 81.0000
4.5986, 81.0000
4.5965, 81.0000
4.5944, 81.0000
4.5924, 81.0000
4.5903, 82.0000
4.5882, 82.0000
4.5862, 82.0000
4.5841, 82.0000
4.5820, 82.0000
4.5800, 82.0000
4.5779, 82.0000
4.5759, 82.0000
4.5738, 82.0000
4.5717, 82.0000
4.5697, 82.0000
4.5676, 82.0000
4.5655, 82.0000
4.5635, 82.0000
4.5614, 82.0000
4.5593, 82.0000
4.5573, 82.0000
4.5552, 82.0000
4.5531, 82.0000
4.5511, 83.0000
4.5490, 83.0000
4.5470, 83.0000
4.5449, 83.0000
4.5428, 83.0000
4.5408, 83.0000
4.5387, 83.0000
4.5366, 82.0000
4.5346, 82.0000
4.5325, 82.0000
4.5304, 82.0000
4.5284, 82.0000
4.5263, 82.0000
4.5243, 82.0000
4.5222, 82.0000
4.5201, 82.0000
4.5181, 81.0000
4.5160, 82.0000
4.5139, 83.0000
4.5119, 83.0000
4.5098, 83.0000
4.5077, 83.0000
4.5057, 83.0000
4.5036, 83.0000
4.5015, 83.0000
4.4995, 83.0000
4.4974, 83.0000
4.4954, 83.0000
4.4933, 82.0000
4.4912, 82.0000
4.4892, 84.0000
4.4871, 86.0000
4.4850, 87.0000
4.4830, 87.0000
4.4809, 96.0000
4.4788, 93.0000
4.4768, 86.0000
4.4747, 81.0000
4.4727, 81.0000
4.4706, 80.0000
4.4685, 80.0000
4.4665, 81.0000
4.4644, 82.0000
4.4623, 82.0000
4.4603, 81.0000
4.4582, 81.0000
4.4561, 81.0000
4.4541, 81.0000
4.4520, 81.0000
4.4499, 82.0000
4.4479, 83.0000
4.4458, 83.0000
4.4438, 81.0000
4.4417, 81.0000
4.4396, 81.0000
4.4376, 81.0000
4.4355, 81.0000
4.4334, 81.0000
4.4314, 82.0000
4.4293, 82.0000
4.4272, 82.0000
4.4252, 82.0000
4.4231, 82.0000
4.4211, 82.0000
4.4190, 82.0000
4.4169, 82.0000
4.4149, 82.0000
4.4128, 82.0000
4.4107, 81.0000
4.4087, 81.0000
4.4066, 81.0000
4.4045, 81.0000
4.4025, 81.0000
4.4004, 81.0000
4.3983, 81.0000
4.3963, 81.0000
4.3942, 81.0000
4.3922, 82.0000
4.3901, 82.0000
4.3880, 83.0000
4.3860, 83.0000
4.3839, 83.0000
4.3818, 83.0000
4.3798, 83.0000
4.3777, 83.0000
4.3756, 83.0000
4.3736, 83.0000
4.3715, 82.0000
4.3695, 82.0000
4.3674, 82.0000
4.3653, 82.0000
4.3633, 82.0000
4.3612, 81.0000
4.3591, 81.0000
4.3571, 81.0000
4.3550, 81.0000
4.3529, 81.0000
4.3509, 81.0000
4.3488, 81.0000
4.3467, 81.0000
4.3447, 81.0000
4.3426, 81.0000
4.3406, 81.0000
4.3385, 81.0000
4.3364, 81.0000
4.3344, 81.0000
4.3323, 81.0000
4.3302, 81.0000
4.3282, 81.0000
4.3261, 81.0000
4.3240, 81.0000
4.3220, 81.0000
4.3199, 82.0000
4.3179, 82.0000
4.3158, 83.0000
4.3137, 83.0000
4.3117, 83.0000
4.3096, 83.0000
4.3075, 83.0000
4.3055, 83.0000
4.3034, 83.0000
4.3013, 83.0000
4.2993, 82.0000
4.2972, 82.0000
4.2951, 82.0000
4.2931, 82.0000
4.2910, 81.0000
4.2890, 81.0000
4.2869, 81.0000
4.2848, 81.0000
4.2828, 81.0000
4.2807, 81.0000
4.2786, 81.0000
4.2766, 81.0000
4.2745, 81.0000
4.2724, 81.0000
4.2704, 81.0000
4.2683, 81.0000
4.2663, 81.0000
4.2642, 81.0000
4.2621, 81.0000
4.2601, 82.0000
4.2580, 82.0000
4.2559, 82.0000
4.2539, 82.0000
4.2518, 82.0000
4.2497, 82.0000
4.2477, 82.0000
4.2456, 82.0000
4.2436, 82.0000
4.2415, 82.0000
4.2394, 82.0000
4.2374, 82.0000
4.2353, 82.0000
4.2332, 82.0000
4.2312, 82.0000
4.2291, 82.0000
4.2270, 82.0000
4.2250, 82.0000
4.2229, 82.0000
4.2208, 82.0000
4.2188, 82.0000
4.2167, 82.0000
4.2147, 82.0000
4.2126, 82.0000
4.2105, 82.0000
4.2085, 82.0000
4.2064, 82.0000
4.2043, 82.0000
4.2023, 82.0000
4.2002, 83.0000
4.1981, 83.0000
4.1961, 83.0000
4.1940, 83.0000
4.1920, 83.0000
4.1899, 83.0000
4.1878, 83.0000
4.1858, 83.0000
4.1837, 83.0000
4.1816, 83.0000
4.1796, 82.0000
4.1775, 82.0000
4.1754, 82.0000
4.1734, 82.0000
4.1713, 82.0000
4.1692, 82.0000
4.1672, 82.0000
4.1651, 82.0000
4.1631, 82.0000
4.1610, 82.0000
4.1589, 82.0000
4.1569, 82.0000
4.1548, 82.0000
4.1527, 82.0000
4.1507, 82.0000
4.1486, 82.0000
4.1465, 82.0000
4.1445, 82.0000
4.1424, 82.0000
4.1404, 82.0000
4.1383, 82.0000
4.1362, 82.0000
4.1342, 82.0000
4.1321, 82.0000
4.1300, 82.0000
4.1280, 82.0000
4.1259, 82.0000
4.1238, 82.0000
4.1218, 82.0000
4.1197, 82.0000
4.1176, 82.0000
4.1156, 82.0000
4.1135, 82.0000
4.1115, 82.0000
4.1094, 82.0000
4.1073, 82.0000
4.1053, 82.0000
4.1032, 82.0000
4.1011, 82.0000
4.0991, 82.0000
4.0970, 82.0000
4.0949, 82.0000
4.0929, 82.0000
4.0908, 82.0000
4.0888, 81.0000
4.0867, 81.0000
4.0846, 81.0000
4.0826, 81.0000
4.0805, 81.0000
4.0784, 82.0000
4.0764, 82.0000
4.0743, 82.0000
4.0722, 82.0000
4.0702, 82.0000
4.0681, 82.0000
4.0660, 82.0000
4.0640, 82.0000
4.0619, 82.0000
4.0599, 82.0000
4.0578, 82.0000
4.0557, 82.0000
4.0537, 82.0000
4.0516, 82.0000
4.0495, 82.0000
4.0475, 83.0000
4.0454, 83.0000
4.0433, 83.0000
4.0413, 83.0000
4.0392, 83.0000
4.0372, 83.0000
4.0351, 83.0000
4.0330, 82.0000
4.0310, 82.0000
4.0289, 82.0000
4.0268, 82.0000
4.0248, 82.0000
4.0227, 83.0000
4.0206, 83.0000
4.0186, 83.0000
4.0165, 83.0000
4.0144, 83.0000
4.0124, 83.0000
4.0103, 83.0000
4.0083, 82.0000
4.0062, 82.0000
4.0041, 82.0000
4.0021, 82.0000
4.0000, 82.0000
3.9979, 82.0000
3.9959, 82.0000
3.9938, 82.0000
3.9917, 82.0000
3.9897, 82.0000
3.9876, 82.0000
3.9856, 82.0000
3.9835, 82.0000
3.9814, 82.0000
3.9794, 82.0000
3.9773, 82.0000
3.9752, 82.0000
3.9732, 83.0000
3.9711, 83.0000
3.9690, 83.0000
3.9670, 83.0000
3.9649, 83.0000
3.9628, 83.0000
3.9608, 83.0000
3.9587, 83.0000
3.9567, 83.0000
3.9546, 83.0000
3.9525, 83.0000
3.9505, 83.0000
3.9484, 83.0000
3.9463, 82.0000
3.9443, 82.0000
3.9422, 82.0000
3.9401, 82.0000
3.9381, 82.0000
3.9360, 82.0000
3.9340, 82.0000
3.9319, 82.0000
3.9298, 82.0000
3.9278, 82.0000
3.9257, 82.0000
3.9236, 82.0000
3.9216, 82.0000
3.9195, 82.0000
3.9174, 83.0000
3.9154, 83.0000
3.9133, 83.0000
3.9112, 83.0000
3.9092, 83.0000
3.9071, 83.0000
3.9051, 83.0000
3.9030, 83.0000
3.9009, 83.0000
3.8989, 83.0000
3.8968, 82.0000
3.8947, 82.0000
3.8927, 82.0000
3.8906, 82.0000
3.8885, 82.0000
3.8865, 82.0000
3.8844, 82.0000
3.8824, 82.0000
3.8803, 82.0000
3.8782, 82.0000
3.8762, 82.0000
3.8741, 82.0000
3.8720, 82.0000
3.8700, 82.0000
3.8679, 82.0000
3.8658, 82.0000
3.8638, 82.0000
3.8617, 82.0000
3.8596, 82.0000
3.8576, 82.0000
3.8555, 82.0000
3.8535, 82.0000
3.8514, 82.0000
3.8493, 82.0000
3.8473, 82.0000
3.8452, 82.0000
3.8431, 82.0000
3.8411, 82.0000
3.8390, 82.0000
3.8369, 82.0000
3.8349, 83.0000
3.8328, 83.0000
3.8308, 83.0000
3.8287, 83.0000
3.8266, 83.0000
3.8246, 83.0000
3.8225, 83.0000
3.8204, 83.0000
3.8184, 83.0000
3.8163, 82.0000
3.8142, 82.0000
3.8122, 82.0000
3.8101, 82.0000
3.8080, 82.0000
3.8060, 82.0000
3.8039, 82.0000
3.8019, 82.0000
3.7998, 82.0000
3.7977, 82.0000
3.7957, 82.0000
3.7936, 82.0000
3.7915, 82.0000
3.7895, 82.0000
3.7874, 82.0000
3.7853, 82.0000
3.7833, 82.0000
3.7812, 82.0000
3.7792, 82.0000
3.7771, 82.0000
3.7750, 82.0000
3.7730, 82.0000
3.7709, 82.0000
3.7688, 82.0000
3.7668, 82.0000
3.7647, 82.0000
3.7626, 82.0000
3.7606, 82.0000
3.7585, 82.0000
3.7564, 82.0000
3.7544, 82.0000
3.7523, 82.0000
3.7503, 82.0000
3.7482, 82.0000
3.7461, 82.0000
3.7441, 82.0000
3.7420, 82.0000
3.7399, 82.0000
3.7379, 82.0000
3.7358, 82.0000
3.7337, 82.0000
3.7317, 82.0000
3.7296, 82.0000
3.7276, 82.0000
3.7255, 83.0000
3.7234, 83.0000
3.7214, 83.0000
3.7193, 83.0000
3.7172, 83.0000
3.7152, 83.0000
3.7131, 83.0000
3.7110, 83.0000
3.7090, 83.0000
3.7069, 83.0000
3.7049, 82.0000
3.7028, 82.0000
3.7007, 82.0000
3.6987, 82.0000
3.6966, 82.0000
3.6945, 82.0000
3.6925, 82.0000
3.6904, 82.0000
3.6883, 82.0000
3.6863, 82.0000
3.6842, 82.0000
3.6821, 82.0000
3.6801, 82.0000
3.6780, 82.0000
3.6760, 82.0000
3.6739, 82.0000
3.6718, 82.0000
3.6698, 82.0000
3.6677, 82.0000
3.6656, 82.0000
3.6636, 83.0000
3.6615, 83.0000
3.6594, 83.0000
3.6574, 83.0000
3.6553, 83.0000
3.6533, 83.0000
3.6512, 83.0000
3.6491, 83.0000
3.6471, 83.0000
3.6450, 83.0000
3.6429, 83.0000
3.6409, 83.0000
3.6388, 83.0000
3.6367, 83.0000
3.6347, 83.0000
3.6326, 83.0000
3.6305, 83.0000
3.6285, 83.0000
3.6264, 83.0000
3.6244, 82.0000
3.6223, 82.0000
3.6202, 82.0000
3.6182, 82.0000
3.6161, 82.0000
3.6140, 82.0000
3.6120, 82.0000
3.6099, 82.0000
3.6078, 82.0000
3.6058, 82.0000
3.6037, 83.0000
3.6017, 83.0000
3.5996, 83.0000
3.5975, 83.0000
3.5955, 83.0000
3.5934, 83.0000
3.5913, 83.0000
3.5893, 83.0000
3.5872, 83.0000
3.5851, 83.0000
3.5831, 83.0000
3.5810, 83.0000
3.5789, 82.0000
3.5769, 82.0000
3.5748, 82.0000
3.5728, 82.0000
3.5707, 82.0000
3.5686, 83.0000
3.5666, 83.0000
3.5645, 83.0000
3.5624, 83.0000
3.5604, 83.0000
3.5583, 82.0000
3.5562, 82.0000
3.5542, 82.0000
3.5521, 81.0000
3.5501, 81.0000
3.5480, 81.0000
3.5459, 81.0000
3.5439, 81.0000
3.5418, 82.0000
3.5397, 82.0000
3.5377, 83.0000
3.5356, 83.0000
3.5335, 83.0000
3.5315, 83.0000
3.5294, 83.0000
3.5273, 83.0000
3.5253, 83.0000
3.5232, 83.0000
3.5212, 83.0000
3.5191, 83.0000
3.5170, 83.0000
3.5150, 83.0000
3.5129, 83.0000
3.5108, 83.0000
3.5088, 83.0000
3.5067, 83.0000
3.5046, 83.0000
3.5026, 83.0000
3.5005, 83.0000
3.4985, 83.0000
3.4964, 83.0000
3.4943, 83.0000
3.4923, 82.0000
3.4902, 82.0000
3.4881, 82.0000
3.4861, 82.0000
3.4840, 82.0000
3.4819, 83.0000
3.4799, 83.0000
3.4778, 83.0000
3.4757, 83.0000
3.4737, 83.0000
3.4716, 83.0000
3.4696, 83.0000
3.4675, 83.0000
3.4654, 83.0000
3.4634, 83.0000
3.4613, 83.0000
3.4592, 83.0000
3.4572, 83.0000
3.4551, 83.0000
3.4530, 83.0000
3.4510, 83.0000
3.4489, 83.0000
3.4469, 83.0000
3.4448, 83.0000
3.4427, 83.0000
3.4407, 83.0000
3.4386, 83.0000
3.4365, 83.0000
3.4345, 83.0000
3.4324, 83.0000
3.4303, 83.0000
3.4283, 83.0000
3.4262, 83.0000
3.4241, 83.0000
3.4221, 83.0000
3.4200, 83.0000
3.4180, 83.0000
3.4159, 83.0000
3.4138, 83.0000
3.4118, 83.0000
3.4097, 83.0000
3.4076, 83.0000
3.4056, 83.0000
3.4035, 83.0000
3.4014, 83.0000
3.3994, 83.0000
3.3973, 83.0000
3.3953, 83.0000
3.3932, 83.0000
3.3911, 83.0000
3.3891, 83.0000
3.3870, 83.0000
3.3849, 83.0000
3.3829, 83.0000
3.3808, 82.0000
3.3787, 82.0000
3.3767, 82.0000
3.3746, 82.0000
3.3725, 82.0000
3.3705, 83.0000
3.3684, 83.0000
3.3664, 83.0000
3.3643, 83.0000
3.3622, 83.0000
3.3602, 83.0000
3.3581, 83.0000
3.3560, 83.0000
3.3540, 83.0000
3.3519, 83.0000
3.3498, 83.0000
3.3478, 83.0000
3.3457, 83.0000
3.3437, 83.0000
3.3416, 82.0000
3.3395, 82.0000
3.3375, 82.0000
3.3354, 82.0000
3.3333, 82.0000
3.3313, 82.0000
3.3292, 82.0000
3.3271, 83.0000
3.3251, 83.0000
3.3230, 83.0000
3.3209, 83.0000
3.3189, 83.0000
3.3168, 83.0000
3.3148, 83.0000
3.3127, 83.0000
3.3106, 83.0000
3.3086, 83.0000
3.3065, 83.0000
3.3044, 83.0000
3.3024, 83.0000
3.3003, 83.0000
3.2982, 83.0000
3.2962, 83.0000
3.2941, 83.0000
3.2921, 83.0000
3.2900, 83.0000
3.2879, 83.0000
3.2859, 83.0000
3.2838, 83.0000
3.2817, 83.0000
3.2797, 83.0000
3.2776, 83.0000
3.2755, 83.0000
3.2735, 83.0000
3.2714, 83.0000
3.2693, 82.0000
3.2673, 82.0000
3.2652, 82.0000
3.2632, 82.0000
3.2611, 82.0000
3.2590, 83.0000
3.2570, 83.0000
3.2549, 83.0000
3.2528, 83.0000
3.2508, 83.0000
3.2487, 83.0000
3.2466, 83.0000
3.2446, 83.0000
3.2425, 83.0000
3.2405, 83.0000
3.2384, 83.0000
3.2363, 83.0000
3.2343, 83.0000
3.2322, 83.0000
3.2301, 83.0000
3.2281, 83.0000
3.2260, 84.0000
3.2239, 84.0000
3.2219, 84.0000
3.2198, 84.0000
3.2178, 84.0000
3.2157, 83.0000
3.2136, 83.0000
3.2116, 83.0000
3.2095, 83.0000
3.2074, 83.0000
3.2054, 83.0000
3.2033, 83.0000
3.2012, 83.0000
3.1992, 83.0000
3.1971, 83.0000
3.1950, 83.0000
3.1930, 83.0000
3.1909, 83.0000
3.1889, 83.0000
3.1868, 83.0000
3.1847, 82.0000
3.1827, 82.0000
3.1806, 82.0000
3.1785, 82.0000
3.1765, 82.0000
3.1744, 83.0000
3.1723, 83.0000
3.1703, 83.0000
3.1682, 83.0000
3.1662, 83.0000
3.1641, 83.0000
3.1620, 83.0000
3.1600, 83.0000
3.1579, 82.0000
3.1558, 82.0000
3.1538, 82.0000
3.1517, 82.0000
3.1496, 83.0000
3.1476, 83.0000
3.1455, 83.0000
3.1434, 83.0000
3.1414, 83.0000
3.1393, 83.0000
3.1373, 83.0000
3.1352, 83.0000
3.1331, 83.0000
3.1311, 83.0000
3.1290, 83.0000
3.1269, 83.0000
3.1249, 83.0000
3.1228, 83.0000
3.1207, 83.0000
3.1187, 83.0000
3.1166, 83.0000
3.1146, 83.0000
3.1125, 83.0000
3.1104, 83.0000
3.1084, 83.0000
3.1063, 83.0000
3.1042, 83.0000
3.1022, 83.0000
3.1001, 83.0000
3.0980, 83.0000
3.0960, 83.0000
3.0939, 83.0000
3.0918, 83.0000
3.0898, 83.0000
3.0877, 83.0000
3.0857, 83.0000
3.0836, 83.0000
3.0815, 83.0000
3.0795, 83.0000
3.0774, 83.0000
3.0753, 83.0000
3.0733, 83.0000
3.0712, 83.0000
3.0691, 83.0000
3.0671, 83.0000
3.0650, 83.0000
3.0630, 83.0000
3.0609, 83.0000
3.0588, 83.0000
3.0568, 83.0000
3.0547, 83.0000
3.0526, 83.0000
3.0506, 83.0000
3.0485, 83.0000
3.0464, 83.0000
3.0444, 83.0000
3.0423, 83.0000
3.0402, 83.0000
3.0382, 83.0000
3.0361, 83.0000
3.0341, 83.0000
3.0320, 83.0000
3.0299, 83.0000
3.0279, 83.0000
3.0258, 83.0000
3.0237, 83.0000
3.0217, 83.0000
3.0196, 83.0000
3.0175, 83.0000
3.0155, 83.0000
3.0134, 83.0000
3.0114, 83.0000
3.0093, 83.0000
3.0072, 83.0000
3.0052, 83.0000
3.0031, 83.0000
3.0010, 83.0000
2.9990, 83.0000
2.9969, 83.0000
2.9948, 83.0000
2.9928, 83.0000
2.9907, 83.0000
2.9886, 83.0000
2.9866, 83.0000
2.9845, 83.0000
2.9825, 83.0000
2.9804, 83.0000
2.9783, 83.0000
2.9763, 83.0000
2.9742, 83.0000
2.9721, 83.0000
2.9701, 83.0000
2.9680, 83.0000
2.9659, 83.0000
2.9639, 83.0000
2.9618, 83.0000
2.9598, 83.0000
2.9577, 83.0000
2.9556, 83.0000
2.9536, 83.0000
2.9515, 83.0000
2.9494, 83.0000
2.9474, 83.0000
2.9453, 83.0000
2.9432, 83.0000
2.9412, 83.0000
2.9391, 83.0000
2.9370, 83.0000
2.9350, 83.0000
2.9329, 83.0000
2.9309, 83.0000
2.9288, 83.0000
2.9267, 83.0000
2.9247, 83.0000
2.9226, 83.0000
2.9205, 83.0000
2.9185, 83.0000
2.9164, 83.0000
2.9143, 83.0000
2.9123, 83.0000
2.9102, 83.0000
2.9082, 83.0000
2.9061, 83.0000
2.9040, 83.0000
2.9020, 83.0000
2.8999, 83.0000
2.8978, 83.0000
2.8958, 83.0000
2.8937, 83.0000
2.8916, 83.0000
2.8896, 83.0000
2.8875, 83.0000
2.8854, 83.0000
2.8834, 83.0000
2.8813, 83.0000
2.8793, 83.0000
2.8772, 83.0000
2.8751, 83.0000
2.8731, 83.0000
2.8710, 83.0000
2.8689, 83.0000
2.8669, 83.0000
2.8648, 83.0000
2.8627, 83.0000
2.8607, 83.0000
2.8586, 83.0000
2.8566, 83.0000
2.8545, 83.0000
2.8524, 83.0000
2.8504, 83.0000
2.8483, 83.0000
2.8462, 83.0000
2.8442, 83.0000
2.8421, 83.0000
2.8400, 83.0000
2.8380, 83.0000
2.8359, 83.0000
2.8338, 83.0000
2.8318, 83.0000
2.8297, 83.0000
2.8277, 83.0000
2.8256, 83.0000
2.8235, 83.0000
2.8215, 83.0000
2.8194, 83.0000
2.8173, 83.0000
2.8153, 83.0000
2.8132, 83.0000
2.8111, 83.0000
2.8091, 83.0000
2.8070, 83.0000
2.8050, 83.0000
2.8029, 83.0000
2.8008, 83.0000
2.7988, 83.0000
2.7967, 83.0000
2.7946, 83.0000
2.7926, 83.0000
2.7905, 83.0000
2.7884, 83.0000
2.7864, 83.0000
2.7843, 83.0000
2.7822, 83.0000
2.7802, 83.0000
2.7781, 83.0000
2.7761, 83.0000
2.7740, 83.0000
2.7719, 83.0000
2.7699, 83.0000
2.7678, 83.0000
2.7657, 84.0000
2.7637, 84.0000
2.7616, 84.0000
2.7595, 84.0000
2.7575, 84.0000
2.7554, 84.0000
2.7534, 84.0000
2.7513, 84.0000
2.7492, 84.0000
2.7472, 84.0000
2.7451, 83.0000
2.7430, 83.0000
2.7410, 83.0000
2.7389, 83.0000
2.7368, 83.0000
2.7348, 83.0000
2.7327, 83.0000
2.7307, 83.0000
2.7286, 83.0000
2.7265, 83.0000
2.7245, 84.0000
2.7224, 84.0000
2.7203, 84.0000
2.7183, 84.0000
2.7162, 84.0000
2.7141, 84.0000
2.7121, 84.0000
2.7100, 83.0000
2.7079, 83.0000
2.7059, 83.0000
2.7038, 83.0000
2.7018, 83.0000
2.6997, 83.0000
2.6976, 84.0000
2.6956, 84.0000
2.6935, 84.0000
2.6914, 84.0000
2.6894, 84.0000
2.6873, 84.0000
2.6852, 84.0000
2.6832, 84.0000
2.6811, 84.0000
2.6791, 84.0000
2.6770, 83.0000
2.6749, 83.0000
2.6729, 83.0000
2.6708, 83.0000
2.6687, 83.0000
2.6667, 83.0000
2.6646, 83.0000
2.6625, 83.0000
2.6605, 83.0000
2.6584, 83.0000
2.6563, 83.0000
2.6543, 83.0000
2.6522, 83.0000
2.6502, 83.0000
2.6481, 83.0000
2.6460, 83.0000
2.6440, 83.0000
2.6419, 83.0000
2.6398, 83.0000
2.6378, 83.0000
2.6357, 83.0000
2.6336, 83.0000
2.6316, 83.0000
2.6295, 83.0000
2.6275, 83.0000
2.6254, 84.0000
2.6233, 84.0000
2.6213, 84.0000
2.6192, 84.0000
2.6171, 84.0000
2.6151, 84.0000
2.6130, 84.0000
2.6109, 84.0000
2.6089, 84.0000
2.6068, 84.0000
2.6047, 84.0000
2.6027, 84.0000
2.6006, 84.0000
2.5986, 84.0000
2.5965, 84.0000
2.5944, 84.0000
2.5924, 84.0000
2.5903, 84.0000
2.5882, 84.0000
2.5862, 84.0000
2.5841, 84.0000
2.5820, 84.0000
2.5800, 84.0000
2.5779, 84.0000
2.5759, 84.0000
2.5738, 84.0000
2.5717, 84.0000
2.5697, 84.0000
2.5676, 84.0000
2.5655, 84.0000
2.5635, 84.0000
2.5614, 84.0000
2.5593, 84.0000
2.5573, 84.0000
2.5552, 83.0000
2.5531, 83.0000
2.5511, 83.0000
2.5490, 83.0000
2.5470, 83.0000
2.5449, 84.0000
2.5428, 84.0000
2.5408, 84.0000
2.5387, 84.0000
2.5366, 84.0000
2.5346, 84.0000
2.5325, 84.0000
2.5304, 84.0000
2.5284, 84.0000
2.5263, 84.0000
2.5243, 84.0000
2.5222, 84.0000
2.5201, 84.0000
2.5181, 84.0000
2.5160, 83.0000
2.5139, 83.0000
2.5119, 83.0000
2.5098, 83.0000
2.5077, 83.0000
2.5057, 84.0000
2.5036, 84.0000
2.5015, 84.0000
2.4995, 84.0000
2.4974, 84.0000
2.4954, 84.0000
2.4933, 84.0000
2.4912, 84.0000
2.4892, 84.0000
2.4871, 84.0000
2.4850, 83.0000
2.4830, 83.0000
2.4809, 83.0000
2.4788, 83.0000
2.4768, 83.0000
2.4747, 84.0000
2.4727, 84.0000
2.4706, 84.0000
2.4685, 84.0000
2.4665, 84.0000
2.4644, 84.0000
2.4623, 84.0000
2.4603, 84.0000
2.4582, 84.0000
2.4561, 84.0000
2.4541, 84.0000
2.4520, 84.0000
2.4499, 84.0000
2.4479, 84.0000
2.4458, 84.0000
2.4438, 84.0000
2.4417, 84.0000
2.4396, 84.0000
2.4376, 84.0000
2.4355, 84.0000
2.4334, 84.0000
2.4314, 85.0000
2.4293, 85.0000
2.4272, 84.0000
2.4252, 84.0000
2.4231, 84.0000
2.4211, 84.0000
2.4190, 84.0000
2.4169, 84.0000
2.4149, 84.0000
2.4128, 84.0000
2.4107, 84.0000
2.4087, 84.0000
2.4066, 84.0000
2.4045, 84.0000
2.4025, 84.0000
2.4004, 84.0000
2.3983, 84.0000
2.3963, 84.0000
2.3942, 84.0000
2.3922, 84.0000
2.3901, 84.0000
2.3880, 84.0000
2.3860, 84.0000
2.3839, 84.0000
2.3818, 84.0000
2.3798, 84.0000
2.3777, 84.0000
2.3756, 84.0000
2.3736, 84.0000
2.3715, 84.0000
2.3695, 84.0000
2.3674, 84.0000
2.3653, 84.0000
2.3633, 84.0000
2.3612, 84.0000
2.3591, 84.0000
2.3571, 84.0000
2.3550, 84.0000
2.3529, 84.0000
2.3509, 84.0000
2.3488, 84.0000
2.3467, 84.0000
2.3447, 84.0000
2.3426, 84.0000
2.3406, 84.0000
2.3385, 84.0000
2.3364, 85.0000
2.3344, 85.0000
2.3323, 85.0000
2.3302, 85.0000
2.3282, 85.0000
2.3261, 85.0000
2.3240, 85.0000
2.3220, 85.0000
2.3199, 85.0000
2.3179, 85.0000
2.3158, 84.0000
2.3137, 84.0000
2.3117, 84.0000
2.3096, 84.0000
2.3075, 84.0000
2.3055, 85.0000
2.3034, 85.0000
2.3013, 85.0000
2.2993, 85.0000
2.2972, 85.0000
2.2951, 85.0000
2.2931, 85.0000
2.2910, 85.0000
2.2890, 85.0000
2.2869, 85.0000
2.2848, 84.0000
2.2828, 84.0000
2.2807, 84.0000
2.2786, 84.0000
2.2766, 84.0000
2.2745, 84.0000
2.2724, 84.0000
2.2704, 84.0000
2.2683, 84.0000
2.2663, 84.0000
2.2642, 84.0000
2.2621, 84.0000
2.2601, 84.0000
2.2580, 84.0000
2.2559, 84.0000
2.2539, 84.0000
2.2518, 84.0000
2.2497, 84.0000
2.2477, 84.0000
2.2456, 84.0000
2.2436, 84.0000
2.2415, 84.0000
2.2394, 84.0000
2.2374, 84.0000
2.2353, 84.0000
2.2332, 84.0000
2.2312, 84.0000
2.2291, 84.0000
2.2270, 84.0000
2.2250, 84.0000
2.2229, 85.0000
2.2208, 86.0000
2.2188, 86.0000
2.2167, 86.0000
2.2147, 85.0000
2.2126, 85.0000
2.2105, 85.0000
2.2085, 84.0000
2.2064, 84.0000
2.2043, 84.0000
2.2023, 84.0000
2.2002, 84.0000
2.1981, 84.0000
2.1961, 84.0000
2.1940, 84.0000
2.1920, 84.0000
2.1899, 84.0000
2.1878, 84.0000
2.1858, 84.0000
2.1837, 84.0000
2.1816, 84.0000
2.1796, 84.0000
2.1775, 84.0000
2.1754, 84.0000
2.1734, 84.0000
2.1713, 84.0000
2.1692, 84.0000
2.1672, 84.0000
2.1651, 84.0000
2.1631, 84.0000
2.1610, 84.0000
2.1589, 84.0000
2.1569, 84.0000
2.1548, 84.0000
2.1527, 84.0000
2.1507, 84.0000
2.1486, 84.0000
2.1465, 84.0000
2.1445, 84.0000
2.1424, 84.0000
2.1404, 84.0000
2.1383, 85.0000
2.1362, 85.0000
2.1342, 85.0000
2.1321, 85.0000
2.1300, 85.0000
2.1280, 85.0000
2.1259, 85.0000
2.1238, 85.0000
2.1218, 85.0000
2.1197, 85.0000
2.1176, 85.0000
2.1156, 85.0000
2.1135, 85.0000
2.1115, 85.0000
2.1094, 85.0000
2.1073, 85.0000
2.1053, 85.0000
2.1032, 85.0000
2.1011, 85.0000
2.0991, 85.0000
2.0970, 85.0000
2.0949, 85.0000
2.0929, 85.0000
2.0908, 85.0000
2.0888, 85.0000
2.0867, 85.0000
2.0846, 85.0000
2.0826, 85.0000
2.0805, 85.0000
2.0784, 85.0000
2.0764, 85.0000
2.0743, 85.0000
2.0722, 85.0000
2.0702, 85.0000
2.0681, 85.0000
2.0660, 85.0000
2.0640, 85.0000
2.0619, 85.0000
2.0599, 85.0000
2.0578, 85.0000
2.0557, 85.0000
2.0537, 85.0000
2.0516, 85.0000
2.0495, 85.0000
2.0475, 84.0000
2.0454, 84.0000
2.0433, 84.0000
2.0413, 84.0000
2.0392, 84.0000
2.0372, 85.0000
2.0351, 85.0000
2.0330, 85.0000
2.0310, 85.0000
2.0289, 85.0000
2.0268, 85.0000
2.0248, 85.0000
2.0227, 85.0000
2.0206, 85.0000
2.0186, 85.0000
2.0165, 85.0000
2.0144, 86.0000
2.0124, 86.0000
2.0103, 86.0000
2.0083, 86.0000
2.0062, 86.0000
2.0041, 86.0000
2.0021, 86.0000
2.0000, 86.0000
1.9979, 86.0000
1.9959, 86.0000
1.9938, 86.0000
1.9917, 86.0000
1.9897, 86.0000
1.9876, 86.0000
1.9856, 86.0000
1.9835, 86.0000
1.9814, 86.0000
1.9794, 86.0000
1.9773, 86.0000
1.9752, 86.0000
1.9732, 86.0000
1.9711, 86.0000
1.9690, 86.0000
1.9670, 86.0000
1.9649, 86.0000
1.9628, 86.0000
1.9608, 86.0000
1.9587, 86.0000
1.9567, 86.0000
1.9546, 86.0000
1.9525, 85.0000
1.9505, 85.0000
1.9484, 85.0000
1.9463, 85.0000
1.9443, 85.0000
1.9422, 85.0000
1.9401, 85.0000
1.9381, 85.0000
1.9360, 86.0000
1.9340, 86.0000
1.9319, 86.0000
1.9298, 86.0000
1.9278, 86.0000
1.9257, 86.0000
1.9236, 86.0000
1.9216, 86.0000
1.9195, 86.0000
1.9174, 87.0000
1.9154, 87.0000
1.9133, 87.0000
1.9112, 87.0000
1.9092, 87.0000
1.9071, 87.0000
1.9051, 87.0000
1.9030, 87.0000
1.9009, 87.0000
1.8989, 87.0000
1.8968, 86.0000
1.8947, 86.0000
1.8927, 86.0000
1.8906, 86.0000
1.8885, 86.0000
1.8865, 87.0000
1.8844, 87.0000
1.8824, 87.0000
1.8803, 87.0000
1.8782, 87.0000
1.8762, 87.0000
1.8741, 87.0000
1.8720, 87.0000
1.8700, 87.0000
1.8679, 87.0000
1.8658, 87.0000
1.8638, 87.0000
1.8617, 87.0000
1.8596, 87.0000
1.8576, 87.0000
1.8555, 87.0000
1.8535, 87.0000
1.8514, 87.0000
1.8493, 87.0000
1.8473, 87.0000
1.8452, 87.0000
1.8431, 87.0000
1.8411, 88.0000
1.8390, 88.0000
1.8369, 88.0000
1.8349, 88.0000
1.8328, 88.0000
1.8308, 88.0000
1.8287, 88.0000
1.8266, 87.0000
1.8246, 87.0000
1.8225, 87.0000
1.8204, 87.0000
1.8184, 87.0000
1.8163, 87.0000
1.8142, 87.0000
1.8122, 87.0000
1.8101, 87.0000
1.8080, 87.0000
1.8060, 87.0000
1.8039, 87.0000
1.8019, 87.0000
1.7998, 87.0000
1.7977, 87.0000
1.7957, 88.0000
1.7936, 88.0000
1.7915, 88.0000
1.7895, 88.0000
1.7874, 88.0000
1.7853, 88.0000
1.7833, 88.0000
1.7812, 88.0000
1.7792, 88.0000
1.7771, 88.0000
1.7750, 87.0000
1.7730, 87.0000
1.7709, 87.0000
1.7688, 87.0000
1.7668, 87.0000
1.7647, 87.0000
1.7626, 87.0000
1.7606, 87.0000
1.7585, 87.0000
1.7564, 87.0000
1.7544, 88.0000
1.7523, 88.0000
1.7503, 88.0000
1.7482, 88.0000
1.7461, 88.0000
1.7441, 88.0000
1.7420, 88.0000
1.7399, 88.0000
1.7379, 88.0000
1.7358, 88.0000
1.7337, 88.0000
1.7317, 88.0000
1.7296, 88.0000
1.7276, 88.0000
1.7255, 88.0000
1.7234, 88.0000
1.7214, 89.0000
1.7193, 89.0000
1.7172, 89.0000
1.7152, 89.0000
1.7131, 89.0000
1.7110, 89.0000
1.7090, 89.0000
1.7069, 89.0000
1.7049, 89.0000
1.7028, 89.0000
1.7007, 89.0000
1.6987, 89.0000
1.6966, 89.0000
1.6945, 90.0000
1.6925, 90.0000
1.6904, 90.0000
1.6883, 90.0000
1.6863, 90.0000
1.6842, 90.0000
1.6821, 90.0000
1.6801, 90.0000
1.6780, 90.0000
1.6760, 90.0000
1.6739, 90.0000
1.6718, 90.0000
1.6698, 90.0000
1.6677, 90.0000
1.6656, 90.0000
1.6636, 90.0000
1.6615, 90.0000
1.6594, 90.0000
1.6574, 90.0000
1.6553, 90.0000
1.6533, 90.0000
1.6512, 90.0000
1.6491, 90.0000
1.6471, 90.0000
1.6450, 90.0000
1.6429, 89.0000
1.6409, 89.0000
1.6388, 89.0000
1.6367, 89.0000
1.6347, 90.0000
1.6326, 90.0000
1.6305, 90.0000
1.6285, 90.0000
1.6264, 90.0000
1.6244, 90.0000
1.6223, 90.0000
1.6202, 90.0000
1.6182, 90.0000
1.6161, 90.0000
1.6140, 90.0000
1.6120, 90.0000
1.6099, 90.0000
1.6078, 90.0000
1.6058, 90.0000
1.6037, 89.0000
1.6017, 89.0000
1.5996, 89.0000
1.5975, 89.0000
1.5955, 89.0000
1.5934, 90.0000
1.5913, 90.0000
1.5893, 90.0000
1.5872, 90.0000
1.5851, 90.0000
1.5831, 91.0000
1.5810, 91.0000
1.5789, 92.0000
1.5769, 92.0000
1.5748, 92.0000
1.5728, 92.0000
1.5707, 92.0000
1.5686, 92.0000
1.5666, 92.0000
1.5645, 92.0000
1.5624, 92.0000
1.5604, 92.0000
1.5583, 92.0000
1.5562, 92.0000
1.5542, 92.0000
1.5521, 92.0000
1.5501, 92.0000
1.5480, 92.0000
1.5459, 92.0000
1.5439, 93.0000
1.5418, 93.0000
1.5397, 94.0000
1.5377, 94.0000
1.5356, 94.0000
1.5335, 94.0000
1.5315, 94.0000
1.5294, 94.0000
1.5273, 94.0000
1.5253, 94.0000
1.5232, 94.0000
1.5212, 95.0000
1.5191, 96.0000
1.5170, 97.0000
1.5150, 97.0000
1.5129, 98.0000
1.5108, 98.0000
1.5088, 98.0000
1.5067, 100.0000
1.5046, 103.0000
1.5026, 110.0000
1.5005, 110.0000
1.4985, 107.0000
1.4964, 100.0000
1.4943, 100.0000
1.4923, 100.0000
1.4902, 100.0000
1.4881, 100.0000
1.4861, 100.0000
1.4840, 100.0000
1.4819, 100.0000
1.4799, 100.0000
1.4778, 100.0000
1.4757, 100.0000
1.4737, 101.0000
1.4716, 101.0000
1.4696, 101.0000
1.4675, 102.0000
1.4654, 102.0000
1.4634, 102.0000
1.4613, 102.0000
1.4592, 102.0000
1.4572, 102.0000
1.4551, 102.0000
1.4530, 102.0000
1.4510, 102.0000
1.4489, 102.0000
1.4469, 103.0000
1.4448, 103.0000
1.4427, 103.0000
1.4407, 103.0000
1.4386, 103.0000
1.4365, 103.0000
1.4345, 103.0000
1.4324, 102.0000
1.4303, 102.0000
1.4283, 102.0000
1.4262, 101.0000
1.4241, 101.0000
1.4221, 101.0000
1.4200, 101.0000
1.4180, 101.0000
1.4159, 102.0000
1.4138, 102.0000
1.4118, 102.0000
1.4097, 102.0000
1.4076, 102.0000
1.4056, 102.0000
1.4035, 102.0000
1.4014, 102.0000
1.3994, 102.0000
1.3973, 103.0000
1.3953, 104.0000
1.3932, 104.0000
1.3911, 105.0000
1.3891, 106.0000
1.3870, 106.0000
1.3849, 107.0000
1.3829, 107.0000
1.3808, 107.0000
1.3787, 108.0000
1.3767, 108.0000
1.3746, 109.0000
1.3725, 109.0000
1.3705, 114.0000
1.3684, 118.0000
1.3664, 122.0000
1.3643, 123.0000
1.3622, 124.0000
1.3602, 130.0000
1.3581, 140.0000
1.3560, 147.0000
1.3540, 148.0000
1.3519, 149.0000
1.3498, 150.0000
1.3478, 159.0000
1.3457, 171.0000
1.3437, 186.0000
1.3416, 191.0000
1.3395, 204.0000
1.3375, 220.0000
1.3354, 239.0000
1.3333, 262.0000
1.3313, 270.0000
1.3292, 270.0000
1.3271, 266.0000
1.3251, 259.0000
1.3230, 262.0000
1.3209, 285.0000
1.3189, 292.0000
1.3168, 323.0000
1.3148, 374.0000
1.3127, 414.0000
1.3106, 457.0000
1.3086, 474.0000
1.3065, 474.0000
1.3044, 470.0000
1.3024, 452.0000
1.3003, 451.0000
1.2982, 481.0000
1.2962, 494.0000
1.2941, 542.0000
1.2921, 606.0000
1.2900, 620.0000
1.2879, 650.0000
1.2859, 659.0000
1.2838, 698.0000
1.2817, 768.0000
1.2797, 875.0000
1.2776, 1149.0000
1.2755, 1521.0000
1.2735, 1629.0000
1.2714, 1918.0000
1.2693, 2083.0000
1.2673, 2081.0000
1.2652, 1979.0000
1.2632, 1802.0000
1.2611, 1761.0000
1.2590, 1657.0000
1.2570, 1460.0000
1.2549, 1222.0000
1.2528, 925.0000
1.2508, 699.0000
1.2487, 659.0000
1.2466, 560.0000
1.2446, 492.0000
1.2425, 453.0000
1.2405, 415.0000
1.2384, 407.0000
1.2363, 384.0000
1.2343, 348.0000
1.2322, 333.0000
1.2301, 319.0000
1.2281, 308.0000
1.2260, 303.0000
1.2239, 287.0000
1.2219, 271.0000
1.2198, 260.0000
1.2178, 250.0000
1.2157, 247.0000
1.2136, 238.0000
1.2116, 230.0000
1.2095, 223.0000
1.2074, 214.0000
1.2054, 207.0000
1.2033, 206.0000
1.2012, 205.0000
1.1992, 198.0000
1.1971, 192.0000
1.1950, 185.0000
1.1930, 184.0000
1.1909, 179.0000
1.1889, 177.0000
1.1868, 176.0000
1.1847, 174.0000
1.1827, 173.0000
1.1806, 172.0000
1.1785, 171.0000
1.1765, 170.0000
1.1744, 165.0000
1.1723, 161.0000
1.1703, 159.0000
1.1682, 158.0000
1.1662, 152.0000
1.1641, 147.0000
1.1620, 145.0000
1.1600, 144.0000
1.1579, 143.0000
1.1558, 142.0000
1.1538, 140.0000
1.1517, 138.0000
1.1496, 137.0000
1.1476, 136.0000
1.1455, 135.0000
1.1434, 134.0000
1.1414, 133.0000
1.1393, 132.0000
1.1373, 131.0000
1.1352, 131.0000
1.1331, 130.0000
1.1311, 129.0000
1.1290, 129.0000
1.1269, 128.0000
1.1249, 128.0000
1.1228, 127.0000
1.1207, 127.0000
1.1187, 127.0000
1.1166, 127.0000
1.1146, 128.0000
1.1125, 129.0000
1.1104, 129.0000
1.1084, 130.0000
1.1063, 131.0000
1.1042, 131.0000
1.1022, 131.0000
1.1001, 131.0000
1.0980, 131.0000
1.0960, 131.0000
1.0939, 130.0000
1.0918, 132.0000
1.0898, 133.0000
1.0877, 134.0000
1.0857, 134.0000
1.0836, 128.0000
1.0815, 125.0000
1.0795, 123.0000
1.0774, 122.0000
1.0753, 121.0000
1.0733, 121.0000
1.0712, 120.0000
1.0691, 120.0000
1.0671, 120.0000
1.0650, 120.0000
1.0630, 120.0000
1.0609, 120.0000
1.0588, 120.0000
1.0568, 118.0000
1.0547, 117.0000
1.0526, 116.0000
1.0506, 116.0000
1.0485, 116.0000
1.0464, 116.0000
1.0444, 116.0000
1.0423, 116.0000
1.0402, 116.0000
1.0382, 114.0000
1.0361, 113.0000
1.0341, 113.0000
1.0320, 113.0000
1.0299, 113.0000
1.0279, 113.0000
1.0258, 112.0000
1.0237, 112.0000
1.0217, 112.0000
1.0196, 112.0000
1.0175, 112.0000
1.0155, 111.0000
1.0134, 111.0000
1.0114, 111.0000
1.0093, 111.0000
1.0072, 111.0000
1.0052, 110.0000
1.0031, 110.0000
1.0010, 109.0000
0.9990, 109.0000
0.9969, 108.0000
0.9948, 108.0000
0.9928, 108.0000
0.9907, 108.0000
0.9886, 108.0000
0.9866, 109.0000
0.9845, 110.0000
0.9825, 110.0000
0.9804, 110.0000
0.9783, 110.0000
0.9763, 110.0000
0.9742, 110.0000
0.9721, 111.0000
0.9701, 112.0000
0.9680, 113.0000
0.9659, 114.0000
0.9639, 117.0000
0.9618, 118.0000
0.9598, 118.0000
0.9577, 119.0000
0.9556, 120.0000
0.9536, 120.0000
0.9515, 122.0000
0.9494, 123.0000
0.9474, 124.0000
0.9453, 125.0000
0.9432, 129.0000
0.9412, 134.0000
0.9391, 136.0000
0.9370, 138.0000
0.9350, 140.0000
0.9329, 141.0000
0.9309, 147.0000
0.9288, 154.0000
0.9267, 159.0000
0.9247, 164.0000
0.9226, 166.0000
0.9205, 172.0000
0.9185, 185.0000
0.9164, 207.0000
0.9143, 242.0000
0.9123, 251.0000
0.9102, 290.0000
0.9082, 388.0000
0.9061, 580.0000
0.9040, 855.0000
0.9020, 837.0000
0.8999, 697.0000
0.8978, 678.0000
0.8958, 638.0000
0.8937, 598.0000
0.8916, 593.0000
0.8896, 604.0000
0.8875, 678.0000
0.8854, 904.0000
0.8834, 1538.0000
0.8813, 2345.0000
0.8793, 1898.0000
0.8772, 881.0000
0.8751, 781.0000
0.8731, 576.0000
0.8710, 484.0000
0.8689, 435.0000
0.8669, 426.0000
0.8648, 452.0000
0.8627, 591.0000
0.8607, 798.0000
0.8586, 949.0000
0.8566, 896.0000
0.8545, 537.0000
0.8524, 477.0000
0.8504, 351.0000
0.8483, 287.0000
0.8462, 264.0000
0.8442, 235.0000
0.8421, 229.0000
0.8400, 210.0000
0.8380, 198.0000
0.8359, 189.0000
0.8338, 177.0000
0.8318, 173.0000
0.8297, 172.0000
0.8277, 171.0000
0.8256, 167.0000
0.8235, 162.0000
0.8215, 160.0000
0.8194, 158.0000
0.8173, 156.0000
0.8153, 155.0000
0.8132, 154.0000
0.8111, 152.0000
0.8091, 150.0000
0.8070, 149.0000
0.8050, 146.0000
0.8029, 143.0000
0.8008, 141.0000
0.7988, 142.0000
0.7967, 143.0000
0.7946, 144.0000
0.7926, 144.0000
0.7905, 137.0000
0.7884, 134.0000
0.7864, 133.0000
0.7843, 132.0000
0.7822, 129.0000
0.7802, 126.0000
0.7781, 123.0000
0.7761, 123.0000
0.7740, 123.0000
0.7719, 123.0000
0.7699, 123.0000
0.7678, 123.0000
0.7657, 122.0000
0.7637, 121.0000
0.7616, 120.0000
0.7595, 117.0000
0.7575, 115.0000
0.7554, 114.0000
0.7534, 113.0000
0.7513, 113.0000
0.7492, 113.0000
0.7472, 113.0000
0.7451, 113.0000
0.7430, 113.0000
0.7410, 112.0000
0.7389, 112.0000
0.7368, 111.0000
0.7348, 110.0000
0.7327, 110.0000
0.7307, 109.0000
0.7286, 109.0000
0.7265, 109.0000
0.7245, 108.0000
0.7224, 108.0000
0.7203, 108.0000
0.7183, 108.0000
0.7162, 108.0000
0.7141, 109.0000
0.7121, 111.0000
0.7100, 111.0000
0.7079, 106.0000
0.7059, 105.0000
0.7038, 105.0000
0.7018, 105.0000
0.6997, 106.0000
0.6976, 106.0000
0.6956, 107.0000
0.6935, 107.0000
0.6914, 106.0000
0.6894, 105.0000
0.6873, 104.0000
0.6852, 103.0000
0.6832, 103.0000
0.6811, 103.0000
0.6791, 103.0000
0.6770, 103.0000
0.6749, 103.0000
0.6729, 106.0000
0.6708, 112.0000
0.6687, 106.0000
0.6667, 102.0000
0.6646, 99.0000
0.6625, 99.0000
0.6605, 99.0000
0.6584, 99.0000
0.6563, 99.0000
0.6543, 99.0000
0.6522, 100.0000
0.6502, 101.0000
0.6481, 101.0000
0.6460, 99.0000
0.6440, 98.0000
0.6419, 98.0000
0.6398, 97.0000
0.6378, 97.0000
0.6357, 97.0000
0.6336, 96.0000
0.6316, 96.0000
0.6295, 96.0000
0.6275, 96.0000
0.6254, 96.0000
0.6233, 96.0000
0.6213, 96.0000
0.6192, 96.0000
0.6171, 96.0000
0.6151, 96.0000
0.6130, 95.0000
0.6109, 95.0000
0.6089, 95.0000
0.6068, 95.0000
0.6047, 95.0000
0.6027, 94.0000
0.6006, 94.0000
0.5986, 94.0000
0.5965, 94.0000
0.5944, 93.0000
0.5924, 93.0000
0.5903, 93.0000
0.5882, 93.0000
0.5862, 93.0000
0.5841, 93.0000
0.5820, 93.0000
0.5800, 93.0000
0.5779, 93.0000
0.5759, 93.0000
0.5738, 92.0000
0.5717, 92.0000
0.5697, 92.0000
0.5676, 92.0000
0.5655, 92.0000
0.5635, 92.0000
0.5614, 92.0000
0.5593, 92.0000
0.5573, 92.0000
0.5552, 92.0000
0.5531, 91.0000
0.5511, 91.0000
0.5490, 91.0000
0.5470, 91.0000
0.5449, 91.0000
0.5428, 90.0000
0.5408, 90.0000
0.5387, 90.0000
0.5366, 90.0000
0.5346, 90.0000
0.5325, 89.0000
0.5304, 89.0000
0.5284, 88.0000
0.5263, 88.0000
0.5243, 88.0000
0.5222, 88.0000
0.5201, 88.0000
0.5181, 89.0000
0.5160, 89.0000
0.5139, 89.0000
0.5119, 89.0000
0.5098, 89.0000
0.5077, 88.0000
0.5057, 88.0000
0.5036, 88.0000
0.5015, 87.0000
0.4995, 87.0000
0.4974, 87.0000
0.4954, 87.0000
0.4933, 87.0000
0.4912, 87.0000
0.4892, 87.0000
0.4871, 87.0000
0.4850, 87.0000
0.4830, 87.0000
0.4809, 87.0000
0.4788, 87.0000
0.4768, 87.0000
0.4747, 87.0000
0.4727, 86.0000
0.4706, 86.0000
0.4685, 86.0000
0.4665, 86.0000
0.4644, 86.0000
0.4623, 86.0000
0.4603, 86.0000
0.4582, 85.0000
0.4561, 85.0000
0.4541, 85.0000
0.4520, 85.0000
0.4499, 85.0000
0.4479, 86.0000
0.4458, 86.0000
0.4438, 86.0000
0.4417, 86.0000
0.4396, 86.0000
0.4376, 86.0000
0.4355, 86.0000
0.4334, 86.0000
0.4314, 85.0000
0.4293, 85.0000
0.4272, 85.0000
0.4252, 85.0000
0.4231, 85.0000
0.4211, 85.0000
0.4190, 85.0000
0.4169, 85.0000
0.4149, 85.0000
0.4128, 85.0000
0.4107, 85.0000
0.4087, 85.0000
0.4066, 85.0000
0.4045, 85.0000
0.4025, 85.0000
0.4004, 85.0000
0.3983, 85.0000
0.3963, 85.0000
0.3942, 85.0000
0.3922, 85.0000
0.3901, 84.0000
0.3880, 83.0000
0.3860, 83.0000
0.3839, 83.0000
0.3818, 83.0000
0.3798, 84.0000
0.3777, 84.0000
0.3756, 84.0000
0.3736, 84.0000
0.3715, 84.0000
0.3695, 84.0000
0.3674, 83.0000
0.3653, 83.0000
0.3633, 83.0000
0.3612, 83.0000
0.3591, 83.0000
0.3571, 83.0000
0.3550, 83.0000
0.3529, 83.0000
0.3509, 83.0000
0.3488, 83.0000
0.3467, 83.0000
0.3447, 83.0000
0.3426, 83.0000
0.3406, 83.0000
0.3385, 83.0000
0.3364, 83.0000
0.3344, 83.0000
0.3323, 83.0000
0.3302, 83.0000
0.3282, 82.0000
0.3261, 82.0000
0.3240, 82.0000
0.3220, 82.0000
0.3199, 82.0000
0.3179, 82.0000
0.3158, 82.0000
0.3137, 83.0000
0.3117, 83.0000
0.3096, 83.0000
0.3075, 83.0000
0.3055, 83.0000
0.3034, 83.0000
0.3013, 83.0000
0.2993, 83.0000
0.2972, 83.0000
0.2951, 83.0000
0.2931, 82.0000
0.2910, 82.0000
0.2890, 82.0000
0.2869, 82.0000
0.2848, 82.0000
0.2828, 82.0000
0.2807, 82.0000
0.2786, 82.0000
0.2766, 82.0000
0.2745, 82.0000
0.2724, 82.0000
0.2704, 82.0000
0.2683, 82.0000
0.2663, 82.0000
0.2642, 82.0000
0.2621, 81.0000
0.2601, 81.0000
0.2580, 81.0000
0.2559, 81.0000
0.2539, 81.0000
0.2518, 81.0000
0.2497, 81.0000
0.2477, 81.0000
0.2456, 81.0000
0.2436, 81.0000
0.2415, 82.0000
0.2394, 82.0000
0.2374, 82.0000
0.2353, 82.0000
0.2332, 82.0000
0.2312, 82.0000
0.2291, 82.0000
0.2270, 82.0000
0.2250, 82.0000
0.2229, 81.0000
0.2208, 81.0000
0.2188, 81.0000
0.2167, 81.0000
0.2147, 81.0000
0.2126, 82.0000
0.2105, 82.0000
0.2085, 83.0000
0.2064, 83.0000
0.2043, 83.0000
0.2023, 83.0000
0.2002, 83.0000
0.1981, 83.0000
0.1961, 83.0000
0.1940, 83.0000
0.1920, 83.0000
0.1899, 82.0000
0.1878, 81.0000
0.1858, 81.0000
0.1837, 81.0000
0.1816, 81.0000
0.1796, 81.0000
0.1775, 81.0000
0.1754, 81.0000
0.1734, 81.0000
0.1713, 81.0000
0.1692, 81.0000
0.1672, 81.0000
0.1651, 81.0000
0.1631, 81.0000
0.1610, 81.0000
0.1589, 81.0000
0.1569, 80.0000
0.1548, 80.0000
0.1527, 80.0000
0.1507, 80.0000
0.1486, 80.0000
0.1465, 80.0000
0.1445, 80.0000
0.1424, 80.0000
0.1404, 80.0000
0.1383, 80.0000
0.1362, 80.0000
0.1342, 80.0000
0.1321, 80.0000
0.1300, 80.0000
0.1280, 80.0000
0.1259, 80.0000
0.1238, 80.0000
0.1218, 80.0000
0.1197, 80.0000
0.1176, 80.0000
0.1156, 80.0000
0.1135, 80.0000
0.1115, 80.0000
0.1094, 80.0000
0.1073, 80.0000
0.1053, 81.0000
0.1032, 81.0000
0.1011, 81.0000
0.0991, 81.0000
0.0970, 81.0000
0.0949, 81.0000
0.0929, 81.0000
0.0908, 80.0000
0.0888, 80.0000
0.0867, 80.0000
0.0846, 80.0000
0.0826, 81.0000
0.0805, 81.0000
0.0784, 81.0000
0.0764, 81.0000
0.0743, 81.0000
0.0722, 81.0000
0.0702, 81.0000
0.0681, 81.0000
0.0660, 81.0000
0.0640, 81.0000
0.0619, 81.0000
0.0599, 81.0000
0.0578, 81.0000
0.0557, 81.0000
0.0537, 81.0000
0.0516, 81.0000
0.0495, 81.0000
0.0475, 81.0000
0.0454, 82.0000
0.0433, 82.0000
0.0413, 82.0000
0.0392, 82.0000
0.0372, 82.0000
0.0351, 83.0000
0.0330, 84.0000
0.0310, 85.0000
0.0289, 85.0000
0.0268, 86.0000
0.0248, 87.0000
0.0227, 87.0000
0.0206, 90.0000
0.0186, 87.0000
0.0165, 86.0000
0.0144, 85.0000
0.0124, 85.0000
0.0103, 107.0000
0.0083, 107.0000
0.0062, 103.0000
0.0041, 126.0000
0.0021, 192.0000
0.0000, 387.0000
-0.0021, 952.0000
-0.0041, 479.0000
-0.0062, 360.0000
-0.0083, 159.0000
-0.0103, 113.0000
-0.0124, 120.0000
-0.0144, 108.0000
-0.0165, 104.0000
-0.0186, 100.0000
-0.0206, 91.0000
-0.0227, 92.0000
-0.0248, 86.0000
-0.0268, 87.0000
-0.0289, 87.0000
-0.0310, 87.0000
-0.0330, 87.0000
-0.0351, 87.0000
-0.0372, 87.0000
-0.0392, 87.0000
-0.0413, 87.0000
-0.0433, 86.0000
-0.0454, 86.0000
-0.0475, 86.0000
-0.0495, 86.0000
-0.0516, 86.0000
-0.0537, 86.0000
-0.0557, 86.0000
-0.0578, 85.0000
-0.0599, 85.0000
-0.0619, 85.0000
-0.0640, 84.0000
-0.0660, 84.0000
-0.0681, 84.0000
-0.0702, 84.0000
-0.0722, 84.0000
-0.0743, 84.0000
-0.0764, 84.0000
-0.0784, 84.0000
-0.0805, 84.0000
-0.0826, 84.0000
-0.0846, 85.0000
-0.0867, 85.0000
-0.0888, 86.0000
-0.0908, 86.0000
-0.0929, 84.0000
-0.0949, 83.0000
-0.0970, 83.0000
##END=